##TITLE=N-HEPTANE
##JCAMP-DX=4.24
##DATA TYPE=INFRARED SPECTRUM
##CLASS=COBLENTZ III
##ORIGIN=DOW CHEMICAL COMPANY
##OWNER=COBLENTZ SOCIETY
Collection (C) 2007 copyright by the U.S. Secretary of Commerce
on behalf of the United States of America. All rights reserved.
##DATE=1960/12/30
##NAMES=heptane
##CAS REGISTRY NO=142-82-5
##MOLFORM=C7H16
##SOURCE REFERENCE=COBLENTZ NO. 10119
##$NIST SOURCE=COBLENTZ
##$NIST IMAGE=cob10119
##SPECTROMETER/DATA SYSTEM=DOW KBr FOREPRISM-GRATING
##INSTRUMENT PARAMETERS=BLAZED AT 3.5, 12.0, 20.0 MICRON, CHANGED AT 5.0, 7.5, 14.9 MICRON
##STATE=LIQUID (NEAT)
##PATH LENGTH=0.011 CM
##SAMPLING PROCEDURE=TRANSMISSION
##RESOLUTION=4
##DATA PROCESSING=DIGITIZED BY NIST FROM HARD COPY (FROM TWO SEGMENTS)
##XUNITS=1/CM
##YUNITS=TRANSMITTANCE
##XFACTOR=1.000000
##YFACTOR=1
##DELTAX=0.869095
##FIRSTX=446.062
##LASTX=3784.26
##FIRSTY=0.9
##MAXX=3784.26
##MINX=446.062
##MAXY=1.005
##MINY=0
##NPOINTS=3842
##XYDATA=(X++(Y..Y))
446.062000 0.9000 0.9000 0.9020 0.9020 0.9020
450.407474 0.9030 0.9040 0.9040 0.9060 0.9070
454.752949 0.9080 0.9100 0.9110 0.9110 0.9130
459.098423 0.9130 0.9140 0.9140 0.9150 0.9170
463.443897 0.9180 0.9180 0.9190 0.9190 0.9210
467.789372 0.9220 0.9220 0.9220 0.9230 0.9230
472.134846 0.9250 0.9250 0.9250 0.9250 0.9250
476.480321 0.9250 0.9250 0.9250 0.9250 0.9260
480.825795 0.9260 0.9270 0.9290 0.9320 0.9320
485.171269 0.9320 0.9330 0.9340 0.9360 0.9370
489.516744 0.9380 0.9400 0.9410 0.9420 0.9450
493.862218 0.9470 0.9470 0.9480 0.9490 0.9510
498.207692 0.9530 0.9550 0.9550 0.9550 0.9560
502.553167 0.9570 0.9590 0.9600 0.9600 0.9610
506.898641 0.9630 0.9640 0.9660 0.9670 0.9670
511.244116 0.9680 0.9700 0.9710 0.9720 0.9720
515.589590 0.9740 0.9740 0.9740 0.9760 0.9760
519.935064 0.9760 0.9760 0.9760 0.9780 0.9790
524.280539 0.9790 0.9790 0.9790 0.9790 0.9800
528.626013 0.9820 0.9830 0.9850 0.9850 0.9860
532.971487 0.9860 0.9870 0.9870 0.9890 0.9890
537.316962 0.9890 0.9900 0.9900 0.9900 0.9910
541.662436 0.9930 0.9940 0.9940 0.9950 0.9950
546.007910 0.9950 0.9970 0.9980 0.9980 0.9980
550.353385 0.9980 0.9980 1.0000 1.0000 1.0000
554.698859 1.0000 1.0010 1.0010 1.0010 1.0000
559.044334 1.0000 1.0000 1.0000 1.0000 1.0000
563.389808 1.0000 1.0000 1.0000 1.0000 1.0000
567.735282 1.0000 1.0000 0.9980 0.9980 0.9970
572.080757 0.9970 0.9970 0.9970 0.9970 0.9970
576.426231 0.9970 0.9970 0.9970 0.9970 0.9970
580.771705 0.9970 0.9970 0.9970 0.9970 0.9970
585.117180 0.9970 0.9970 0.9970 0.9970 0.9970
589.462654 0.9980 0.9980 0.9980 1.0000 1.0000
593.808128 1.0000 1.0000 0.9980 0.9970 0.9970
598.153603 0.9970 0.9970 0.9970 0.9970 0.9970
602.499077 0.9970 0.9970 0.9970 0.9970 0.9970
606.844552 0.9970 0.9970 0.9970 0.9970 0.9980
611.190026 1.0000 1.0000 1.0010 1.0010 1.0010
615.535500 1.0020 1.0020 1.0040 1.0040 1.0050
619.880975 1.0050 1.0050 1.0050 1.0050 1.0040
624.226449 1.0040 1.0020 1.0020 1.0010 1.0010
628.571923 1.0010 1.0010 1.0010 1.0010 1.0010
632.917398 1.0010 1.0000 1.0000 1.0000 0.9980
637.262872 1.0000 1.0000 1.0000 1.0000 0.9980
641.608347 0.9980 0.9980 0.9980 0.9980 0.9980
645.953821 0.9980 0.9980 0.9980 0.9970 0.9970
650.299295 0.9970 0.9970 0.9970 0.9970 0.9980
654.644770 0.9980 0.9980 0.9980 0.9970 0.9950
658.990244 0.9940 0.9930 0.9910 0.9900 0.9890
663.335718 0.9870 0.9870 0.9860 0.9860 0.9860
667.681193 0.9860 0.9850 0.9850 0.9850 0.9850
672.026667 0.9850 0.9830 0.9820 0.9820 0.9830
676.372141 0.9830 0.9820 0.9790 0.9780 0.9780
680.717616 0.9780 0.9780 0.9720 0.9680 0.9680
685.063090 0.9670 0.9660 0.9600 0.9560 0.9530
689.408565 0.9490 0.9480 0.9470 0.9400 0.9340
693.754039 0.9300 0.9250 0.9190 0.9110 0.9030
698.099513 0.8940 0.8850 0.8760 0.8660 0.8540
702.444988 0.8390 0.8270 0.8091 0.7960 0.7741
706.790462 0.7450 0.7320 0.6990 0.6670 0.6460
711.135936 0.5772 0.5202 0.4851 0.4372 0.3912
715.481411 0.3150 0.2390 0.2110 0.1760 0.1411
719.826885 0.1051 0.0890 0.0721 0.0999 0.1299
724.172360 0.1600 0.1900 0.2200 0.2500 0.2789
728.517834 0.3089 0.3389 0.3689 0.4078 0.4468
732.863308 0.4850 0.4900 0.4910 0.4930 0.4930
737.208783 0.4940 0.4970 0.5000 0.5040 0.5060
741.554257 0.5140 0.5160 0.5160 0.5160 0.5190
745.899731 0.5330 0.5549 0.5769 0.5999 0.6249
750.245206 0.6480 0.6690 0.6910 0.7100 0.7250
754.590680 0.7390 0.7430 0.7470 0.7500 0.7480
758.936154 0.7470 0.7440 0.7360 0.7250 0.7090
763.281629 0.6840 0.6730 0.6341 0.6101 0.5861
767.627103 0.5670 0.5500 0.5320 0.5170 0.4950
771.972578 0.4900 0.4900 0.4950 0.5020 0.5209
776.318052 0.5470 0.5690 0.6040 0.6190 0.6340
780.663526 0.6500 0.6650 0.6820 0.6950 0.7099
785.009001 0.7300 0.7550 0.7750 0.8020 0.8230
789.354475 0.8380 0.8510 0.8610 0.8829 0.8960
793.699949 0.9070 0.9130 0.9180 0.9210 0.9230
798.045424 0.9290 0.9300 0.9320 0.9320 0.9330
802.390898 0.9340 0.9370 0.9380 0.9380 0.9400
806.736373 0.9400 0.9410 0.9410 0.9410 0.9420
811.081847 0.9420 0.9420 0.9410 0.9410 0.9400
815.427321 0.9370 0.9360 0.9340 0.9320 0.9260
819.772796 0.9230 0.9220 0.9210 0.9170 0.9070
824.118270 0.9030 0.8940 0.8880 0.8760 0.8680
828.463744 0.8550 0.8500 0.8470 0.8460 0.8460
832.809219 0.8470 0.8490 0.8540 0.8600 0.8700
837.154693 0.8760 0.8800 0.8850 0.8890 0.8890
841.500167 0.8910 0.8910 0.8920 0.8920 0.8920
845.845642 0.8920 0.8920 0.8920 0.8910 0.8890
850.191116 0.8870 0.8840 0.8790 0.8730 0.8680
854.536591 0.8650 0.8610 0.8600 0.8600 0.8580
858.882065 0.8570 0.8550 0.8530 0.8460 0.8360
863.227539 0.8160 0.7920 0.7850 0.7850 0.7890
867.573014 0.8080 0.8160 0.8220 0.8220 0.8200
871.918488 0.8160 0.8020 0.7740 0.7590 0.7590
876.263962 0.7630 0.7740 0.7940 0.8149 0.8240
880.609437 0.8260 0.8240 0.8190 0.8110 0.8020
884.954911 0.8000 0.8000 0.8010 0.8020 0.8040
889.300385 0.8050 0.8050 0.8050 0.8050 0.8010
893.645860 0.7940 0.7880 0.7740 0.7551 0.7221
897.991334 0.6519 0.5880 0.5880 0.6000 0.6340
902.336809 0.6520 0.6720 0.6989 0.7100 0.7259
906.682283 0.7390 0.7470 0.7560 0.7640 0.7740
911.027757 0.7850 0.7970 0.8110 0.8120 0.8130
915.373232 0.8150 0.8150 0.8120 0.8120 0.8110
919.718706 0.8040 0.7960 0.7790 0.7730 0.7501
924.064180 0.7390 0.7050 0.6830 0.6230 0.5820
928.409655 0.5461 0.5280 0.5130 0.5120 0.5130
932.755129 0.5160 0.5270 0.5390 0.5520 0.5720
937.100604 0.5910 0.6150 0.6419 0.6669 0.6859
941.446078 0.6920 0.7010 0.7060 0.7070 0.7090
945.791552 0.7140 0.7220 0.7260 0.7360 0.7430
950.137027 0.7540 0.7600 0.7710 0.7770 0.7780
954.482501 0.7780 0.7780 0.7770 0.7750 0.7740
958.827975 0.7710 0.7710 0.7700 0.7700 0.7730
963.173450 0.7860 0.7970 0.8130 0.8309 0.8469
967.518924 0.8580 0.8690 0.8810 0.8890 0.8950
971.864398 0.9110 0.9140 0.9210 0.9220 0.9230
976.209873 0.9250 0.9250 0.9250 0.9250 0.9230
980.555347 0.9230 0.9220 0.9190 0.9170 0.9130
984.900822 0.9080 0.9030 0.8990 0.8980 0.8960
989.246296 0.8960 0.8960 0.8960 0.8960 0.8980
993.591770 0.8980 0.8980 0.8980 0.8960 0.8960
997.937245 0.8950 0.8950 0.8920 0.8910 0.8890
1002.282719 0.8890 0.8830 0.8790 0.8750 0.8720
1006.628193 0.8720 0.8700 0.8690 0.8680 0.8650
1010.973668 0.8620 0.8530 0.8450 0.8350 0.8310
1015.319142 0.8260 0.8150 0.8080 0.7970 0.7890
1019.664617 0.7860 0.7860 0.7880 0.7900 0.7970
1024.010091 0.8040 0.8130 0.8220 0.8280 0.8310
1028.355565 0.8340 0.8380 0.8420 0.8460 0.8500
1032.701040 0.8530 0.8570 0.8580 0.8600 0.8600
1037.046514 0.8600 0.8580 0.8550 0.8540 0.8530
1041.391988 0.8500 0.8450 0.8340 0.8310 0.8270
1045.737463 0.8200 0.8190 0.8160 0.8130 0.8130
1050.082937 0.8120 0.8120 0.8120 0.8120 0.8110
1054.428411 0.8110 0.8070 0.8020 0.8010 0.7930
1058.773886 0.7900 0.7790 0.7740 0.7710 0.7590
1063.119360 0.7540 0.7480 0.7400 0.7350 0.7200
1067.464835 0.7020 0.6830 0.6710 0.6640 0.6600
1071.810309 0.6580 0.6560 0.6530 0.6500 0.6460
1076.155783 0.6450 0.6460 0.6480 0.6520 0.6600
1080.501258 0.6680 0.6880 0.7060 0.7400 0.7470
1084.846732 0.7620 0.7850 0.7980 0.8149 0.8280
1089.192206 0.8410 0.8500 0.8580 0.8680 0.8800
1093.537681 0.8910 0.8940 0.9000 0.9060 0.9110
1097.883155 0.9150 0.9180 0.9210 0.9220 0.9230
1102.228629 0.9260 0.9300 0.9320 0.9330 0.9330
1106.574104 0.9360 0.9370 0.9380 0.9400 0.9400
1110.919578 0.9410 0.9410 0.9410 0.9410 0.9400
1115.265053 0.9380 0.9370 0.9340 0.9330 0.9320
1119.610527 0.9260 0.9210 0.9210 0.9180 0.9110
1123.956001 0.9000 0.8940 0.8870 0.8720 0.8610
1128.301476 0.8510 0.8390 0.8200 0.7961 0.7701
1132.646950 0.7399 0.7110 0.6820 0.6570 0.6500
1136.992424 0.6490 0.6500 0.6560 0.6630 0.6720
1141.337899 0.6900 0.7050 0.7200 0.7220 0.7390
1145.683373 0.7550 0.7640 0.7790 0.7930 0.8040
1150.028848 0.8130 0.8220 0.8310 0.8380 0.8430
1154.374322 0.8470 0.8490 0.8490 0.8500 0.8500
1158.719796 0.8500 0.8500 0.8500 0.8500 0.8500
1163.065271 0.8500 0.8500 0.8510 0.8510 0.8540
1167.410745 0.8610 0.8700 0.8810 0.8910 0.9000
1171.756219 0.9030 0.9070 0.9080 0.9100 0.9100
1176.101694 0.9110 0.9110 0.9140 0.9140 0.9150
1180.447168 0.9170 0.9170 0.9170 0.9180 0.9210
1184.792642 0.9220 0.9220 0.9230 0.9230 0.9210
1189.138117 0.9170 0.9150 0.9130 0.9100 0.9030
1193.483591 0.8990 0.8980 0.8920 0.8870 0.8790
1197.829066 0.8720 0.8660 0.8540 0.8510 0.8410
1202.174540 0.8320 0.8280 0.8260 0.8240 0.8220
1206.520014 0.8170 0.8160 0.8160 0.8170 0.8170
1210.865489 0.8200 0.8240 0.8310 0.8430 0.8490
1215.210963 0.8510 0.8550 0.8580 0.8600 0.8620
1219.556437 0.8640 0.8640 0.8640 0.8640 0.8620
1223.901912 0.8620 0.8610 0.8600 0.8570 0.8540
1228.247386 0.8500 0.8460 0.8390 0.8340 0.8270
1232.592861 0.8120 0.7900 0.7790 0.7481 0.7370
1236.938335 0.7370 0.7390 0.7470 0.7580 0.7700
1241.283809 0.7730 0.7900 0.8040 0.8110 0.8150
1245.629284 0.8220 0.8240 0.8270 0.8300 0.8300
1249.974758 0.8300 0.8300 0.8300 0.8300 0.8300
1254.320232 0.8270 0.8270 0.8230 0.8200 0.8170
1258.665707 0.8130 0.8080 0.8040 0.7970 0.7930
1263.011181 0.7860 0.7790 0.7750 0.7670 0.7600
1267.356655 0.7550 0.7430 0.7370 0.7260 0.7220
1271.702130 0.7110 0.7070 0.6950 0.6900 0.6830
1276.047604 0.6730 0.6650 0.6600 0.6460 0.6350
1280.393079 0.6200 0.6190 0.6200 0.6220 0.6300
1284.738553 0.6440 0.6530 0.6630 0.6690 0.6750
1289.084027 0.6760 0.6770 0.6790 0.6800 0.6790
1293.429502 0.6790 0.6770 0.6720 0.6610 0.6460
1297.774976 0.6330 0.6220 0.5960 0.5740 0.5580
1302.120450 0.5460 0.5440 0.5430 0.5440 0.5470
1306.465925 0.5470 0.5510 0.5550 0.5610 0.5620
1310.811399 0.5660 0.5740 0.5840 0.5950 0.6110
1315.156874 0.6300 0.6440 0.6580 0.6720 0.6770
1319.502348 0.6860 0.6910 0.6910 0.6940 0.6980
1323.847822 0.6980 0.6970 0.6940 0.6920 0.6880
1328.193297 0.6770 0.6750 0.6690 0.6560 0.6351
1332.538771 0.6100 0.5920 0.5780 0.5690 0.5620
1336.884245 0.5540 0.5350 0.5170 0.5000 0.4681
1341.229720 0.4059 0.3530 0.3530 0.3640 0.3730
1345.575194 0.3810 0.4140 0.4519 0.4799 0.4969
1349.920668 0.4980 0.5000 0.5010 0.5010 0.5010
1354.266143 0.5010 0.5020 0.5040 0.5040 0.5050
1358.611617 0.5050 0.5020 0.5010 0.4970 0.4870
1362.957092 0.4720 0.4610 0.4530 0.4400 0.4220
1367.302566 0.3999 0.3759 0.3470 0.3269 0.2860
1371.648040 0.2290 0.2170 0.1920 0.1261 0.1110
1375.993515 0.0949 0.0579 0.0290 0.0140 0.0090
1380.338989 0.0080 0.0090 0.0160 0.0170 0.0230
1384.684463 0.0331 0.0552 0.1251 0.1610 0.1950
1389.029938 0.2240 0.2430 0.2890 0.3160 0.3499
1393.375412 0.3641 0.3830 0.3960 0.4110 0.4370
1397.720886 0.4530 0.4640 0.4710 0.4790 0.4870
1402.066361 0.4930 0.4970 0.5000 0.5000 0.5010
1406.411835 0.5010 0.5000 0.5000 0.4970 0.4970
1410.757310 0.4940 0.4910 0.4890 0.4870 0.4850
1415.102784 0.4780 0.4680 0.4660 0.4570 0.4530
1419.448258 0.4440 0.4370 0.4260 0.4070 0.4000
1423.793733 0.3960 0.3850 0.3730 0.3620 0.3490
1428.139207 0.3340 0.3150 0.3080 0.2820 0.2360
1432.484681 0.2110 0.2010 0.1900 0.1641 0.1391
1436.830156 0.1200 0.1100 0.0970 0.0770 0.0740
1441.175630 0.0620 0.0470 0.0460 0.0390 0.0310
1445.521105 0.0280 0.0230 0.0190 0.0140 0.0100
1449.866579 0.0060 0.0050 0.0050 0.0050 0.0050
1454.212053 0.0050 0.0050 0.0050 0.0050 0.0050
1458.557528 0.0050 0.0050 0.0050 0.0050 0.0050
1462.903002 0.0050 0.0050 0.0050 0.0050 0.0050
1467.248476 0.0060 0.0060 0.0060 0.0060 0.0060
1471.593951 0.0080 0.0080 0.0080 0.0090 0.0090
1475.939425 0.0120 0.0140 0.0200 0.0280 0.0350
1480.284899 0.0391 0.0591 0.1120 0.1300 0.1560
1484.630374 0.1770 0.2010 0.2220 0.2450 0.2690
1488.975848 0.2901 0.3121 0.3320 0.3510 0.3800
1493.321323 0.3910 0.3980 0.4130 0.4330 0.4470
1497.666797 0.4600 0.4750 0.4930 0.5100 0.5160
1502.012271 0.5200 0.5310 0.5460 0.5500 0.5590
1506.357746 0.5700 0.5800 0.5950 0.6040 0.6180
1510.703220 0.6220 0.6300 0.6370 0.6420 0.6460
1515.048694 0.6500 0.6570 0.6650 0.6730 0.6790
1519.394169 0.6840 0.6880 0.6920 0.6970 0.7020
1523.739643 0.7090 0.7100 0.7170 0.7210 0.7250
1528.085118 0.7290 0.7320 0.7360 0.7390 0.7410
1532.430592 0.7470 0.7510 0.7540 0.7560 0.7590
1536.776066 0.7670 0.7700 0.7730 0.7780 0.7810
1541.121541 0.7850 0.7920 0.7960 0.8020 0.8020
1545.467015 0.8050 0.8070 0.8110 0.8130 0.8170
1549.812489 0.8190 0.8220 0.8230 0.8300 0.8320
1554.157964 0.8360 0.8380 0.8420 0.8490 0.8490
1558.503438 0.8500 0.8510 0.8540 0.8550 0.8580
1562.848912 0.8600 0.8610 0.8610 0.8620 0.8650
1567.194387 0.8680 0.8690 0.8700 0.8730 0.8750
1571.539861 0.8750 0.8760 0.8770 0.8770 0.8790
1575.885336 0.8800 0.8800 0.8810 0.8810 0.8810
1580.230810 0.8830 0.8830 0.8830 0.8850 0.8850
1584.576284 0.8850 0.8870 0.8880 0.8880 0.8890
1588.921759 0.8890 0.8890 0.8890 0.8890 0.8890
1593.267233 0.8910 0.8920 0.8920 0.8920 0.8940
1597.612707 0.8950 0.8950 0.8960 0.8960 0.8980
1601.958182 0.8990 0.9000 0.9020 0.9020 0.9030
1606.303656 0.9040 0.9040 0.9040 0.9060 0.9060
1610.649130 0.9060 0.9060 0.9060 0.9080 0.9100
1614.994605 0.9100 0.9100 0.9110 0.9110 0.9110
1619.340079 0.9110 0.9110 0.9110 0.9110 0.9110
1623.685554 0.9110 0.9110 0.9110 0.9110 0.9110
1628.031028 0.9110 0.9110 0.9110 0.9110 0.9100
1632.376502 0.9100 0.9080 0.9070 0.9070 0.9070
1636.721977 0.9060 0.9060 0.9060 0.9060 0.9070
1641.067451 0.9070 0.9080 0.9080 0.9080 0.9100
1645.412925 0.9100 0.9100 0.9100 0.9100 0.9100
1649.758400 0.9100 0.9100 0.9100 0.9110 0.9110
1654.103874 0.9130 0.9130 0.9140 0.9140 0.9140
1658.449349 0.9150 0.9150 0.9170 0.9180 0.9190
1662.794823 0.9190 0.9210 0.9220 0.9220 0.9220
1667.140297 0.9220 0.9220 0.9230 0.9230 0.9230
1671.485772 0.9230 0.9230 0.9230 0.9250 0.9250
1675.831246 0.9250 0.9250 0.9260 0.9260 0.9270
1680.176720 0.9300 0.9300 0.9320 0.9320 0.9340
1684.522195 0.9360 0.9370 0.9370 0.9380 0.9380
1688.867669 0.9380 0.9380 0.9400 0.9400 0.9400
1693.213143 0.9400 0.9410 0.9420 0.9420 0.9440
1697.558618 0.9450 0.9490 0.9520 0.9520 0.9530
1701.904092 0.9550 0.9560 0.9570 0.9590 0.9600
1706.249567 0.9600 0.9610 0.9630 0.9640 0.9640
1710.595041 0.9660 0.9660 0.9660 0.9670 0.9710
1714.940515 0.9710 0.9720 0.9750 0.9750 0.9750
1719.285990 0.9760 0.9760 0.9760 0.9760 0.9760
1723.631464 0.9780 0.9780 0.9780 0.9780 0.9790
1727.976938 0.9790 0.9790 0.9790 0.9790 0.9790
1732.322413 0.9790 0.9790 0.9790 0.9790 0.9790
1736.667887 0.9790 0.9790 0.9790 0.9790 0.9790
1741.013362 0.9790 0.9790 0.9790 0.9790 0.9790
1745.358836 0.9780 0.9780 0.9780 0.9780 0.9780
1749.704310 0.9780 0.9780 0.9780 0.9780 0.9780
1754.049785 0.9780 0.9780 0.9780 0.9780 0.9780
1758.395259 0.9790 0.9800 0.9800 0.9800 0.9790
1762.740733 0.9780 0.9780 0.9780 0.9790 0.9800
1767.086208 0.9800 0.9800 0.9800 0.9800 0.9800
1771.431682 0.9800 0.9800 0.9820 0.9820 0.9830
1775.777156 0.9850 0.9860 0.9870 0.9890 0.9890
1780.122631 0.9890 0.9890 0.9890 0.9890 0.9890
1784.468105 0.9890 0.9900 0.9900 0.9900 0.9900
1788.813580 0.9910 0.9910 0.9910 0.9930 0.9940
1793.159054 0.9940 0.9940 0.9940 0.9940 0.9940
1797.504528 0.9940 0.9940 0.9940 0.9940 0.9940
1801.850003 0.9940 0.9940 0.9940 0.9940 0.9940
1806.195477 0.9940 0.9940 0.9950 0.9970 0.9970
1810.540951 0.9970 0.9980 0.9980 1.0000 1.0000
1814.886426 1.0000 1.0010 1.0020 1.0020 1.0020
1819.231900 1.0020 1.0020 1.0020 1.0020 1.0020
1823.577375 1.0020 1.0020 1.0020 1.0020 1.0020
1827.922849 1.0020 1.0040 1.0040 1.0040 1.0040
1832.268323 1.0040 1.0040 1.0040 1.0040 1.0040
1836.613798 1.0040 1.0040 1.0040 1.0040 1.0020
1840.959272 1.0020 1.0020 1.0010 1.0010 1.0010
1845.304746 1.0010 1.0010 1.0010 1.0000 1.0000
1849.650221 1.0000 0.9980 0.9970 0.9950 0.9930
1853.995695 0.9930 0.9930 0.9930 0.9930 0.9930
1858.341169 0.9930 0.9930 0.9930 0.9930 0.9930
1862.686644 0.9930 0.9930 0.9930 0.9930 0.9930
1867.032118 0.9930 0.9930 0.9930 0.9930 0.9910
1871.377593 0.9910 0.9910 0.9910 0.9910 0.9900
1875.723067 0.9900 0.9900 0.9890 0.9890 0.9870
1880.068541 0.9850 0.9820 0.9820 0.9800 0.9800
1884.414016 0.9790 0.9790 0.9800 0.9800 0.9800
1888.759490 0.9800 0.9800 0.9800 0.9820 0.9820
1893.104964 0.9830 0.9830 0.9830 0.9850 0.9850
1897.450439 0.9850 0.9860 0.9870 0.9890 0.9900
1901.795913 0.9900 0.9900 0.9910 0.9930 0.9940
1906.141387 0.9940 0.9950 0.9950 0.9950 0.9950
1910.486862 0.9950 0.9950 0.9950 0.9950 0.9950
1914.832336 0.9970 0.9970 0.9970 0.9970 0.9950
1919.177811 0.9950 0.9950 0.9950 0.9950 0.9940
1923.523285 0.9930 0.9930 0.9930 0.9930 0.9930
1927.868759 0.9930 0.9930 0.9930 0.9930 0.9930
1932.214234 0.9930 0.9930 0.9930 0.9930 0.9940
1936.559708 0.9940 0.9940 0.9940 0.9940 0.9940
1940.905182 0.9940 0.9930 0.9930 0.9930 0.9930
1945.250657 0.9910 0.9910 0.9910 0.9910 0.9910
1949.596131 0.9910 0.9900 0.9900 0.9900 0.9910
1953.941606 0.9910 0.9930 0.9930 0.9910 0.9910
1958.287080 0.9900 0.9890 0.9850 0.9850 0.9910
1962.632554 0.9970 0.9980 0.9980 0.9980 0.9980
1966.978029 0.9980 0.9980 0.9980 0.9980 0.9980
1971.323503 0.9980 0.9980 0.9980 0.9980 0.9980
1975.668977 0.9980 0.9980 0.9970 0.9970 0.9970
1980.014452 0.9970 0.9970 0.9950 0.9950 0.9950
1984.359926 0.9950 0.9940 0.9940 0.9940 0.9940
1988.705400 0.9950 0.9980 0.9980 0.9980 0.9970
1993.050875 0.9970 0.9970 0.9950 0.9940 0.9940
1997.396349 0.9940 0.9940 0.9940 0.9930 0.9930
2001.741824 0.9930 0.9930 0.9930 0.9920 0.9910
2006.087298 0.9905 0.9900 0.9875 0.9850 0.9850
2010.432772 0.9850 0.9840 0.9830 0.9810 0.9790
2014.778247 0.9775 0.9760 0.9740 0.9720 0.9695
2019.123721 0.9670 0.9655 0.9640 0.9615 0.9590
2023.469195 0.9561 0.9531 0.9525 0.9520 0.9520
2027.814670 0.9520 0.9525 0.9530 0.9545 0.9560
2032.160144 0.9565 0.9570 0.9580 0.9590 0.9600
2036.505619 0.9610 0.9625 0.9640 0.9650 0.9660
2040.851093 0.9665 0.9670 0.9675 0.9680 0.9694
2045.196567 0.9709 0.9724 0.9739 0.9740 0.9740
2049.542042 0.9745 0.9750 0.9755 0.9760 0.9760
2053.887516 0.9760 0.9770 0.9780 0.9785 0.9790
2058.232990 0.9795 0.9800 0.9810 0.9820 0.9820
2062.578465 0.9820 0.9820 0.9820 0.9825 0.9830
2066.923939 0.9839 0.9849 0.9850 0.9850 0.9850
2071.269413 0.9850 0.9850 0.9850 0.9850 0.9850
2075.614888 0.9850 0.9850 0.9850 0.9850 0.9850
2079.960362 0.9850 0.9841 0.9831 0.9830 0.9830
2084.305837 0.9830 0.9830 0.9830 0.9830 0.9825
2088.651311 0.9820 0.9820 0.9820 0.9820 0.9820
2092.996785 0.9820 0.9820 0.9811 0.9801 0.9800
2097.342260 0.9800 0.9800 0.9800 0.9800 0.9800
2101.687734 0.9800 0.9800 0.9800 0.9800 0.9795
2106.033208 0.9790 0.9790 0.9790 0.9790 0.9790
2110.378683 0.9790 0.9790 0.9790 0.9790 0.9790
2114.724157 0.9790 0.9790 0.9790 0.9785 0.9780
2119.069631 0.9771 0.9761 0.9760 0.9760 0.9760
2123.415106 0.9760 0.9760 0.9760 0.9760 0.9760
2127.760580 0.9760 0.9760 0.9760 0.9760 0.9760
2132.106055 0.9760 0.9760 0.9760 0.9760 0.9760
2136.451529 0.9755 0.9750 0.9750 0.9750 0.9745
2140.797003 0.9740 0.9722 0.9702 0.9668 0.9633
2145.142478 0.9621 0.9611 0.9592 0.9572 0.9565
2149.487952 0.9560 0.9542 0.9522 0.9507 0.9492
2153.833426 0.9486 0.9481 0.9480 0.9480 0.9480
2158.178901 0.9480 0.9480 0.9480 0.9480 0.9480
2162.524375 0.9480 0.9480 0.9484 0.9489 0.9490
2166.869850 0.9490 0.9490 0.9490 0.9499 0.9509
2171.215324 0.9510 0.9510 0.9510 0.9510 0.9501
2175.560798 0.9491 0.9490 0.9490 0.9490 0.9490
2179.906273 0.9486 0.9481 0.9480 0.9480 0.9480
2184.251747 0.9480 0.9476 0.9471 0.9470 0.9470
2188.597221 0.9470 0.9470 0.9470 0.9470 0.9470
2192.942696 0.9470 0.9470 0.9470 0.9470 0.9470
2197.288170 0.9470 0.9470 0.9470 0.9470 0.9470
2201.633644 0.9470 0.9470 0.9470 0.9461 0.9451
2205.979119 0.9437 0.9422 0.9416 0.9411 0.9410
2210.324593 0.9410 0.9406 0.9401 0.9391 0.9381
2214.670068 0.9380 0.9380 0.9376 0.9371 0.9370
2219.015542 0.9370 0.9370 0.9370 0.9370 0.9370
2223.361016 0.9374 0.9379 0.9380 0.9380 0.9380
2227.706491 0.9380 0.9389 0.9399 0.9400 0.9400
2232.051965 0.9404 0.9409 0.9410 0.9410 0.9410
2236.397439 0.9410 0.9414 0.9419 0.9428 0.9438
2240.742914 0.9444 0.9449 0.9458 0.9469 0.9470
2245.088388 0.9470 0.9478 0.9488 0.9490 0.9490
2249.433863 0.9490 0.9490 0.9498 0.9508 0.9510
2253.779337 0.9510 0.9510 0.9510 0.9510 0.9510
2258.124811 0.9510 0.9510 0.9510 0.9510 0.9502
2262.470286 0.9492 0.9490 0.9490 0.9486 0.9481
2266.815760 0.9476 0.9471 0.9458 0.9443 0.9428
2271.161234 0.9413 0.9406 0.9401 0.9388 0.9373
2275.506709 0.9366 0.9361 0.9352 0.9342 0.9336
2279.852183 0.9331 0.9326 0.9321 0.9312 0.9302
2284.197657 0.9288 0.9273 0.9270 0.9270 0.9270
2288.543132 0.9270 0.9266 0.9261 0.9260 0.9260
2292.888606 0.9256 0.9251 0.9242 0.9232 0.9230
2297.234081 0.9230 0.9226 0.9221 0.9220 0.9220
2301.579555 0.9216 0.9211 0.9202 0.9192 0.9186
2305.925029 0.9181 0.9176 0.9171 0.9162 0.9152
2310.270504 0.9150 0.9150 0.9146 0.9141 0.9136
2314.615978 0.9131 0.9130 0.9130 0.9122 0.9112
2318.961452 0.9106 0.9101 0.9092 0.9082 0.9076
2323.306927 0.9071 0.9066 0.9061 0.9048 0.9033
2327.652401 0.9010 0.8985 0.8968 0.8953 0.8938
2331.997875 0.8923 0.8920 0.8920 0.8928 0.8938
2336.343350 0.8940 0.8940 0.8944 0.8949 0.8954
2340.688824 0.8959 0.8960 0.8960 0.8944 0.8925
2345.034299 0.8916 0.8911 0.8910 0.8910 0.8910
2349.379773 0.8910 0.8910 0.8910 0.8914 0.8919
2353.725247 0.8920 0.8920 0.8916 0.8911 0.8910
2358.070722 0.8910 0.8902 0.8892 0.8886 0.8881
2362.416196 0.8880 0.8880 0.8880 0.8880 0.8880
2366.761670 0.8880 0.8880 0.8880 0.8884 0.8889
2371.107145 0.8890 0.8890 0.8898 0.8908 0.8914
2375.452619 0.8919 0.8920 0.8920 0.8920 0.8920
2379.798094 0.8920 0.8920 0.8928 0.8938 0.8940
2384.143568 0.8940 0.8932 0.8922 0.8916 0.8911
2388.489042 0.8902 0.8892 0.8890 0.8890 0.8886
2392.834517 0.8881 0.8880 0.8880 0.8884 0.8889
2397.179991 0.8890 0.8890 0.8897 0.8908 0.8914
2401.525465 0.8919 0.8935 0.8955 0.8982 0.9012
2405.870940 0.9035 0.9055 0.9075 0.9095 0.9104
2410.216414 0.9109 0.9117 0.9127 0.9145 0.9165
2414.561888 0.9185 0.9205 0.9214 0.9219 0.9220
2418.907363 0.9220 0.9224 0.9229 0.9230 0.9230
2423.252837 0.9237 0.9247 0.9265 0.9285 0.9294
2427.598312 0.9299 0.9307 0.9317 0.9320 0.9320
2431.943786 0.9324 0.9329 0.9334 0.9339 0.9347
2436.289260 0.9357 0.9364 0.9369 0.9370 0.9370
2440.634735 0.9374 0.9379 0.9387 0.9397 0.9407
2444.980209 0.9417 0.9427 0.9437 0.9444 0.9449
2449.325683 0.9450 0.9450 0.9450 0.9450 0.9450
2453.671158 0.9450 0.9446 0.9441 0.9440 0.9440
2458.016632 0.9440 0.9440 0.9440 0.9440 0.9440
2462.362107 0.9440 0.9440 0.9440 0.9440 0.9440
2466.707581 0.9443 0.9448 0.9450 0.9450 0.9450
2471.053055 0.9450 0.9450 0.9450 0.9450 0.9450
2475.398530 0.9450 0.9450 0.9450 0.9450 0.9450
2479.744004 0.9450 0.9450 0.9450 0.9447 0.9442
2484.089478 0.9433 0.9423 0.9413 0.9403 0.9390
2488.434953 0.9375 0.9370 0.9370 0.9367 0.9362
2492.780427 0.9350 0.9335 0.9330 0.9330 0.9320
2497.125901 0.9305 0.9300 0.9300 0.9297 0.9292
2501.471376 0.9290 0.9290 0.9276 0.9256 0.9240
2505.816850 0.9225 0.9217 0.9212 0.9203 0.9193
2510.162325 0.9183 0.9173 0.9160 0.9145 0.9116
2514.507799 0.9081 0.9057 0.9037 0.9027 0.9022
2518.853273 0.9013 0.9003 0.9000 0.9000 0.8993
2523.198748 0.8983 0.8973 0.8963 0.8933 0.8893
2527.544222 0.8877 0.8872 0.8863 0.8853 0.8847
2531.889696 0.8842 0.8843 0.8848 0.8857 0.8867
2536.235171 0.8873 0.8878 0.8880 0.8880 0.8883
2540.580645 0.8888 0.8897 0.8907 0.8910 0.8910
2544.926120 0.8910 0.8910 0.8913 0.8918 0.8920
2549.271594 0.8920 0.8920 0.8920 0.8917 0.8912
2553.617068 0.8910 0.8910 0.8904 0.8893 0.8883
2557.962543 0.8873 0.8850 0.8820 0.8807 0.8802
2562.308017 0.8777 0.8742 0.8682 0.8607 0.8558
2566.653491 0.8523 0.8494 0.8469 0.8416 0.8346
2570.998966 0.8295 0.8255 0.8211 0.8166 0.8108
2575.344440 0.8043 0.7981 0.7922 0.7887 0.7867
2579.689914 0.7857 0.7852 0.7831 0.7801 0.7784
2584.035389 0.7774 0.7761 0.7746 0.7728 0.7708
2588.380863 0.7688 0.7668 0.7638 0.7603 0.7561
2592.726338 0.7516 0.7465 0.7410 0.7349 0.7284
2597.071812 0.7254 0.7244 0.7193 0.7118 0.7084
2601.417286 0.7074 0.7070 0.7070 0.7070 0.7070
2605.762761 0.7070 0.7070 0.7070 0.7070 0.7076
2610.108235 0.7086 0.7090 0.7090 0.7090 0.7090
2614.453709 0.7090 0.7090 0.7090 0.7090 0.7090
2618.799184 0.7090 0.7090 0.7090 0.7096 0.7106
2623.144658 0.7110 0.7110 0.7104 0.7094 0.7053
2627.490132 0.6993 0.6952 0.6922 0.6877 0.6822
2631.835607 0.6788 0.6768 0.6760 0.6760 0.6772
2636.181081 0.6792 0.6800 0.6800 0.6806 0.6816
2640.526556 0.6820 0.6820 0.6820 0.6820 0.6820
2644.872030 0.6820 0.6820 0.6820 0.6820 0.6820
2649.217504 0.6820 0.6820 0.6811 0.6796 0.6778
2653.562979 0.6758 0.6718 0.6663 0.6605 0.6545
2657.908453 0.6471 0.6386 0.6295 0.6199 0.6089
2662.253927 0.5969 0.5841 0.5706 0.5553 0.5389
2666.599402 0.5265 0.5170 0.5118 0.5098 0.5090
2670.944876 0.5090 0.5101 0.5121 0.5181 0.5271
2675.290351 0.5344 0.5404 0.5464 0.5525 0.5591
2679.635825 0.5661 0.5748 0.5848 0.5956 0.6071
2683.981299 0.6163 0.6238 0.6304 0.6364 0.6410
2688.326774 0.6445 0.6477 0.6507 0.6531 0.6551
2692.672248 0.6574 0.6599 0.6627 0.6657 0.6670
2697.017722 0.6670 0.6673 0.6678 0.6680 0.6680
2701.363197 0.6672 0.6657 0.6636 0.6611 0.6583
2705.708671 0.6553 0.6523 0.6493 0.6464 0.6434
2710.054145 0.6401 0.6366 0.6328 0.6288 0.6217
2714.399620 0.6122 0.6002 0.5862 0.5736 0.5621
2718.745094 0.5520 0.5431 0.5346 0.5266 0.5192
2723.090569 0.5122 0.5052 0.4982 0.4910 0.4835
2727.436043 0.4706 0.4531 0.4369 0.4218 0.4128
2731.781517 0.4088 0.4070 0.4070 0.4092 0.4132
2736.126992 0.4199 0.4288 0.4405 0.4545 0.4634
2740.472466 0.4679 0.4774 0.4914 0.5038 0.5148
2744.817940 0.5213 0.5238 0.5258 0.5273 0.5291
2749.163415 0.5311 0.5323 0.5328 0.5338 0.5353
2753.508889 0.5365 0.5375 0.5380 0.5380 0.5380
2757.854364 0.5380 0.5380 0.5380 0.5375 0.5365
2762.199838 0.5357 0.5352 0.5342 0.5327 0.5307
2766.545312 0.5282 0.5262 0.5247 0.5219 0.5179
2770.890787 0.5124 0.5054 0.4981 0.4906 0.4839
2775.236261 0.4779 0.4740 0.4720 0.4685 0.4635
2779.581735 0.4567 0.4482 0.4392 0.4296 0.4191
2783.927210 0.4076 0.3971 0.3876 0.3794 0.3724
2788.272684 0.3652 0.3577 0.3500 0.3420 0.3340
2792.618158 0.3260 0.3175 0.3085 0.3000 0.2921
2796.963633 0.2833 0.2738 0.2646 0.2555 0.2465
2801.309107 0.2375 0.2287 0.2202 0.2115 0.2025
2805.654582 0.1933 0.1838 0.1751 0.1671 0.1586
2810.000056 0.1496 0.1411 0.1331 0.1249 0.1164
2814.345530 0.1101 0.1061 0.1021 0.0980 0.0923
2818.691005 0.0848 0.0780 0.0721 0.0663 0.0608
2823.036479 0.0544 0.0469 0.0411 0.0371 0.0343
2827.381953 0.0328 0.0313 0.0298 0.0278 0.0253
2831.727428 0.0207 0.0137 0.0081 0.0041 0.0015
2836.072902 0.0005 0.0000 0.0000 0.0000 0.0000
2840.418376 0.0000 0.0000 0.0000 0.0000 0.0000
2844.763851 0.0000 0.0000 0.0000 0.0000 0.0000
2849.109325 0.0000 0.0000 0.0000 0.0000 0.0000
2853.454800 0.0000 0.0000 0.0000 0.0000 0.0000
2857.800274 0.0000 0.0000 0.0000 0.0000 0.0000
2862.145748 0.0000 0.0000 0.0000 0.0000 0.0000
2866.491223 0.0000 0.0000 0.0000 0.0000 0.0000
2870.836697 0.0000 0.0000 0.0000 0.0000 0.0000
2875.182171 0.0000 0.0000 0.0000 0.0000 0.0000
2879.527646 0.0000 0.0000 0.0000 0.0000 0.0000
2883.873120 0.0000 0.0000 0.0000 0.0000 0.0000
2888.218595 0.0000 0.0000 0.0000 0.0000 0.0000
2892.564069 0.0000 0.0000 0.0000 0.0000 0.0000
2896.909543 0.0000 0.0000 0.0000 0.0000 0.0000
2901.255018 0.0000 0.0000 0.0000 0.0000 0.0000
2905.600492 0.0000 0.0000 0.0000 0.0000 0.0000
2909.945966 0.0000 0.0000 0.0000 0.0000 0.0000
2914.291441 0.0000 0.0000 0.0000 0.0000 0.0000
2918.636915 0.0000 0.0000 0.0000 0.0000 0.0000
2922.982389 0.0000 0.0000 0.0000 0.0000 0.0000
2927.327864 0.0000 0.0000 0.0000 0.0000 0.0000
2931.673338 0.0000 0.0000 0.0000 0.0000 0.0000
2936.018813 0.0000 0.0000 0.0000 0.0000 0.0000
2940.364287 0.0000 0.0000 0.0000 0.0000 0.0000
2944.709761 0.0000 0.0000 0.0000 0.0000 0.0000
2949.055236 0.0000 0.0000 0.0000 0.0000 0.0000
2953.400710 0.0000 0.0000 0.0000 0.0000 0.0002
2957.746184 0.0007 0.0010 0.0010 0.0010 0.0010
2962.091659 0.0010 0.0010 0.0010 0.0010 0.0010
2966.437133 0.0010 0.0010 0.0010 0.0010 0.0010
2970.782608 0.0010 0.0010 0.0010 0.0010 0.0010
2975.128082 0.0010 0.0012 0.0017 0.0020 0.0020
2979.473556 0.0024 0.0034 0.0040 0.0040 0.0044
2983.819031 0.0054 0.0066 0.0081 0.0090 0.0090
2988.164505 0.0092 0.0097 0.0111 0.0141 0.0170
2992.509979 0.0195 0.0222 0.0251 0.0278 0.0298
2996.855454 0.0323 0.0358 0.0397 0.0442 0.0496
3001.200928 0.0566 0.0638 0.0713 0.0819 0.0978
3005.546402 0.1113 0.1203 0.1289 0.1370 0.1448
3009.891877 0.1523 0.1596 0.1666 0.1725 0.1765
3014.237351 0.1812 0.1872 0.1943 0.2033 0.2121
3018.582826 0.2206 0.2298 0.2402 0.2500 0.2585
3022.928300 0.2672 0.2761 0.2845 0.2915 0.2975
3027.273774 0.3015 0.3073 0.3162 0.3243 0.3308
3031.619249 0.3371 0.3431 0.3488 0.3538 0.3584
3035.964723 0.3624 0.3669 0.3724 0.3779 0.3834
3040.310197 0.3892 0.3957 0.4029 0.4115 0.4193
3044.655672 0.4258 0.4321 0.4381 0.4443 0.4508
3049.001146 0.4571 0.4631 0.4692 0.4757 0.4822
3053.346621 0.4887 0.4949 0.5003 0.5060 0.5120
3057.692095 0.5178 0.5233 0.5290 0.5350 0.5405
3062.037569 0.5450 0.5497 0.5547 0.5595 0.5640
3066.383044 0.5685 0.5730 0.5770 0.5800 0.5850
3070.728518 0.5939 0.6018 0.6073 0.6134 0.6209
3075.073992 0.6271 0.6306 0.6344 0.6390 0.6430
3079.419467 0.6460 0.6501 0.6566 0.6621 0.6656
3083.764941 0.6693 0.6733 0.6765 0.6780 0.6801
3088.110415 0.6836 0.6866 0.6886 0.6911 0.6946
3092.455890 0.6982 0.7022 0.7053 0.7063 0.7075
3096.801364 0.7090 0.7102 0.7107 0.7119 0.7149
3101.146839 0.7181 0.7216 0.7248 0.7273 0.7295
3105.492313 0.7310 0.7328 0.7353 0.7373 0.7383
3109.837787 0.7393 0.7403 0.7419 0.7449 0.7478
3114.183262 0.7503 0.7525 0.7540 0.7555 0.7570
3118.528736 0.7583 0.7593 0.7606 0.7626 0.7643
3122.874210 0.7653 0.7664 0.7679 0.7690 0.7690
3127.219685 0.7691 0.7696 0.7700 0.7700 0.7700
3131.565159 0.7700 0.7699 0.7694 0.7690 0.7690
3135.910633 0.7690 0.7690 0.7687 0.7677 0.7670
3140.256108 0.7670 0.7669 0.7664 0.7657 0.7647
3144.601582 0.7640 0.7640 0.7640 0.7640 0.7639
3148.947057 0.7634 0.7630 0.7630 0.7626 0.7611
3153.292531 0.7600 0.7600 0.7600 0.7600 0.7600
3157.638005 0.7600 0.7600 0.7600 0.7599 0.7594
3161.983480 0.7590 0.7590 0.7590 0.7590 0.7590
3166.328954 0.7590 0.7590 0.7590 0.7590 0.7590
3170.674428 0.7590 0.7590 0.7590 0.7590 0.7590
3175.019903 0.7590 0.7590 0.7590 0.7591 0.7596
3179.365377 0.7600 0.7600 0.7600 0.7600 0.7603
3183.710852 0.7613 0.7620 0.7620 0.7621 0.7626
3188.056326 0.7631 0.7636 0.7640 0.7640 0.7646
3192.401800 0.7671 0.7696 0.7721 0.7741 0.7746
3196.747275 0.7754 0.7769 0.7786 0.7811 0.7836
3201.092749 0.7861 0.7888 0.7918 0.7950 0.7990
3205.438223 0.8029 0.8064 0.8099 0.8134 0.8172
3209.783698 0.8222 0.8267 0.8297 0.8333 0.8388
3214.129172 0.8442 0.8492 0.8532 0.8542 0.8564
3218.474646 0.8618 0.8665 0.8685 0.8708 0.8743
3222.820121 0.8777 0.8807 0.8837 0.8867 0.8893
3227.165595 0.8908 0.8923 0.8938 0.8951 0.8956
3231.511070 0.8969 0.9009 0.9047 0.9077 0.9101
3235.856544 0.9106 0.9112 0.9122 0.9132 0.9142
3240.202018 0.9157 0.9187 0.9212 0.9222 0.9232
3244.547493 0.9242 0.9250 0.9250 0.9251 0.9256
3248.892967 0.9263 0.9278 0.9290 0.9290 0.9291
3253.238441 0.9296 0.9300 0.9300 0.9300 0.9300
3257.583916 0.9302 0.9312 0.9320 0.9320 0.9321
3261.929390 0.9326 0.9331 0.9336 0.9340 0.9340
3266.274865 0.9342 0.9352 0.9360 0.9360 0.9361
3270.620339 0.9366 0.9371 0.9376 0.9382 0.9392
3274.965813 0.9400 0.9400 0.9401 0.9406 0.9411
3279.311288 0.9416 0.9420 0.9420 0.9422 0.9432
3283.656762 0.9440 0.9440 0.9441 0.9446 0.9450
3288.002236 0.9450 0.9450 0.9450 0.9450 0.9450
3292.347711 0.9450 0.9450 0.9450 0.9450 0.9450
3296.693185 0.9450 0.9450 0.9450 0.9450 0.9450
3301.038659 0.9450 0.9450 0.9449 0.9444 0.9440
3305.384134 0.9440 0.9438 0.9428 0.9420 0.9420
3309.729608 0.9420 0.9420 0.9420 0.9420 0.9420
3314.075083 0.9420 0.9420 0.9420 0.9420 0.9420
3318.420557 0.9420 0.9420 0.9422 0.9432 0.9440
3322.766031 0.9440 0.9440 0.9440 0.9440 0.9440
3327.111506 0.9440 0.9440 0.9440 0.9440 0.9440
3331.456980 0.9440 0.9438 0.9428 0.9419 0.9414
3335.802454 0.9409 0.9404 0.9398 0.9388 0.9380
3340.147929 0.9380 0.9380 0.9380 0.9379 0.9374
3344.493403 0.9370 0.9370 0.9370 0.9370 0.9370
3348.838877 0.9370 0.9368 0.9353 0.9339 0.9334
3353.184352 0.9330 0.9330 0.9330 0.9330 0.9330
3357.529826 0.9330 0.9330 0.9330 0.9330 0.9330
3361.875301 0.9330 0.9330 0.9331 0.9336 0.9340
3366.220775 0.9340 0.9340 0.9340 0.9341 0.9351
3370.566249 0.9360 0.9360 0.9361 0.9366 0.9370
3374.911724 0.9370 0.9370 0.9370 0.9370 0.9370
3379.257198 0.9370 0.9370 0.9371 0.9376 0.9381
3383.602672 0.9391 0.9400 0.9400 0.9400 0.9400
3387.948147 0.9401 0.9406 0.9410 0.9410 0.9410
3392.293621 0.9410 0.9411 0.9416 0.9420 0.9420
3396.639096 0.9420 0.9420 0.9421 0.9431 0.9440
3400.984570 0.9440 0.9441 0.9446 0.9451 0.9461
3405.330044 0.9470 0.9470 0.9470 0.9470 0.9470
3409.675519 0.9470 0.9471 0.9481 0.9491 0.9501
3414.020993 0.9511 0.9516 0.9521 0.9526 0.9530
3418.366467 0.9530 0.9530 0.9530 0.9530 0.9530
3422.711942 0.9531 0.9541 0.9550 0.9556 0.9560
3427.057416 0.9560 0.9561 0.9566 0.9570 0.9570
3431.402890 0.9572 0.9587 0.9600 0.9600 0.9601
3435.748365 0.9606 0.9610 0.9610 0.9611 0.9621
3440.093839 0.9630 0.9630 0.9630 0.9630 0.9630
3444.439314 0.9630 0.9631 0.9636 0.9640 0.9640
3448.784788 0.9641 0.9651 0.9660 0.9660 0.9660
3453.130262 0.9665 0.9670 0.9675 0.9680 0.9680
3457.475737 0.9681 0.9691 0.9700 0.9700 0.9700
3461.821211 0.9700 0.9701 0.9711 0.9721 0.9731
3466.166685 0.9740 0.9745 0.9750 0.9750 0.9750
3470.512160 0.9755 0.9760 0.9760 0.9761 0.9771
3474.857634 0.9780 0.9780 0.9780 0.9785 0.9790
3479.203109 0.9790 0.9790 0.9795 0.9800 0.9800
3483.548583 0.9801 0.9811 0.9820 0.9825 0.9830
3487.894057 0.9830 0.9830 0.9830 0.9830 0.9830
3492.239532 0.9831 0.9841 0.9850 0.9850 0.9850
3496.585006 0.9850 0.9850 0.9850 0.9850 0.9850
3500.930480 0.9850 0.9850 0.9850 0.9855 0.9860
3505.275955 0.9865 0.9870 0.9870 0.9871 0.9881
3509.621429 0.9890 0.9890 0.9890 0.9890 0.9890
3513.966903 0.9890 0.9890 0.9895 0.9900 0.9900
3518.312378 0.9900 0.9900 0.9900 0.9900 0.9900
3522.657852 0.9900 0.9900 0.9900 0.9900 0.9900
3527.003327 0.9900 0.9900 0.9900 0.9900 0.9900
3531.348801 0.9900 0.9900 0.9900 0.9900 0.9900
3535.694275 0.9900 0.9900 0.9900 0.9905 0.9910
3540.039750 0.9910 0.9910 0.9910 0.9910 0.9910
3544.385224 0.9910 0.9910 0.9910 0.9910 0.9910
3548.730698 0.9910 0.9910 0.9905 0.9900 0.9895
3553.076173 0.9890 0.9880 0.9870 0.9870 0.9870
3557.421647 0.9870 0.9870 0.9865 0.9860 0.9860
3561.767122 0.9860 0.9855 0.9850 0.9850 0.9850
3566.112596 0.9850 0.9850 0.9840 0.9830 0.9830
3570.458070 0.9830 0.9825 0.9820 0.9805 0.9790
3574.803545 0.9785 0.9780 0.9770 0.9760 0.9760
3579.149019 0.9760 0.9760 0.9760 0.9755 0.9750
3583.494493 0.9735 0.9720 0.9720 0.9720 0.9720
3587.839968 0.9720 0.9715 0.9710 0.9690 0.9670
3592.185442 0.9650 0.9630 0.9595 0.9560 0.9545
3596.530916 0.9530 0.9525 0.9520 0.9505 0.9490
3600.876391 0.9465 0.9440 0.9410 0.9380 0.9370
3605.221865 0.9360 0.9340 0.9320 0.9320 0.9320
3609.567340 0.9320 0.9320 0.9325 0.9330 0.9330
3613.912814 0.9330 0.9325 0.9320 0.9320 0.9320
3618.258288 0.9320 0.9320 0.9320 0.9320 0.9320
3622.603763 0.9320 0.9310 0.9300 0.9300 0.9300
3626.949237 0.9310 0.9320 0.9320 0.9320 0.9320
3631.294711 0.9320 0.9310 0.9300 0.9300 0.9300
3635.640186 0.9300 0.9300 0.9300 0.9300 0.9310
3639.985660 0.9320 0.9325 0.9330 0.9330 0.9330
3644.331134 0.9335 0.9340 0.9335 0.9330 0.9330
3648.676609 0.9330 0.9330 0.9330 0.9330 0.9330
3653.022083 0.9325 0.9320 0.9310 0.9300 0.9300
3657.367558 0.9300 0.9310 0.9320 0.9320 0.9320
3661.713032 0.9310 0.9300 0.9300 0.9300 0.9295
3666.058506 0.9290 0.9290 0.9290 0.9280 0.9270
3670.403981 0.9270 0.9270 0.9270 0.9270 0.9270
3674.749455 0.9270 0.9270 0.9270 0.9270 0.9270
3679.094929 0.9270 0.9270 0.9270 0.9270 0.9279
3683.440404 0.9289 0.9290 0.9290 0.9295 0.9300
3687.785878 0.9310 0.9320 0.9320 0.9320 0.9329
3692.131353 0.9339 0.9349 0.9359 0.9379 0.9399
3696.476827 0.9409 0.9419 0.9434 0.9449 0.9459
3700.822301 0.9469 0.9475 0.9480 0.9480 0.9480
3705.167776 0.9475 0.9470 0.9470 0.9470 0.9470
3709.513250 0.9470 0.9461 0.9451 0.9445 0.9440
3713.858724 0.9426 0.9411 0.9396 0.9381 0.9371
3718.204199 0.9361 0.9351 0.9341 0.9335 0.9330
3722.549673 0.9325 0.9320 0.9311 0.9301 0.9300
3726.895147 0.9300 0.9300 0.9300 0.9295 0.9290
3731.240622 0.9290 0.9290 0.9281 0.9271 0.9270
3735.586096 0.9270 0.9270 0.9270 0.9270 0.9270
3739.931571 0.9270 0.9270 0.9270 0.9270 0.9270
3744.277045 0.9270 0.9270 0.9270 0.9270 0.9270
3748.622519 0.9270 0.9270 0.9270 0.9270 0.9292
3752.967994 0.9317 0.9320 0.9320 0.9306 0.9291
3757.313468 0.9290 0.9290 0.9290 0.9290 0.9290
3761.658942 0.9290 0.9290 0.9290 0.9290 0.9290
3766.004417 0.9290 0.9290 0.9290 0.9290 0.9290
3770.349891 0.9290 0.9294 0.9299 0.9309 0.9319
3774.695366 0.9320 0.9320 0.9320 0.9320 0.9320
3779.040840 0.9320 0.9320 0.9320 0.9320 0.9320
3783.386314 0.9320 0.9320
##END=
