##TITLE=Water
##JCAMP-DX=4.24
##DATA TYPE=INFRARED SPECTRUM
##ORIGIN=Sadtler Research Labs Under US-EPA Contract
##OWNER=NIST Standard Reference Data Program
Collection (C) 2007 copyright by the U.S. Secretary of Commerce
on behalf of the United States of America. All rights reserved.
##CAS REGISTRY NO=7732-18-5
##MOLFORM=H2O
##$NIST SOURCE=MSDC-IR
##STATE=gas
##XUNITS=1/CM
##YUNITS=ABSORBANCE
##XFACTOR=1.0
##YFACTOR=0.000062833
##DELTAX=4.0
##FIRSTX=450.0
##LASTX=3966.0
##FIRSTY=0.006095
##MAXX=3966
##MINX=450
##MAXY=0.62833
##MINY=0
##NPOINTS=880
##XYDATA=(X++(Y..Y))
450.0 97 1808 4679 1749 1382 2926 3112 759 1423 1682
490.0 1555 1702 629 2741 1616 1569 1561 3208 1300 1338
530.0 808 573 990 321 1352 1070 761 533 514 614
570.0 900 1242 898 1368 791 1050 508 1035 612 602
610.0 220 635 512 580 896 348 858 752 769 322
650.0 460 377 458 476 213 791 325 454 201 615
690.0 564 696 528 474 586 409 409 321 364 306
730.0 400 259 373 476 535 310 480 340 241 418
770.0 280 396 282 465 236 363 363 455 405 309
810.0 467 235 399 256 405 228 340 359 277 349
850.0 314 485 239 403 298 371 258 379 326 281
890.0 377 310 370 247 443 294 376 306 405 324
930.0 314 408 298 377 270 447 259 381 328 368
970.0 334 338 405 268 389 301 406 271 396 340
1010.0 336 368 349 383 258 415 308 401 282 436
1050.0 327 355 383 356 388 317 445 295 409 312
1090.0 427 314 371 405 348 400 314 451 282 427
1130.0 331 401 388 375 411 324 440 338 434 308
1170.0 457 446 406 377 435 446 298 491 325 423
1210.0 345 594 355 420 589 363 411 320 619 355
1250.0 485 326 595 563 692 1090 542 496 478 893
1290.0 862 883 547 522 324 1074 1519 2362 1220 678
1330.0 600 532 3686 2833 728 790 704 1606 2872 2101
1370.0 1377 3107 2174 943 2379 2016 3150 4455 2166 1526
1410.0 2525 403 6621 2679 3121 1234 4221 3423 1319 1350
1450.0 2363 3847 7480 3681 2250 2293 6614 4690 716 3528
1490.0 6097 2708 4544 3680 7523 10000 6087 7143 9633 5270
1530.0 5613 4122 6153 9560 7220 3325 4233 8971 5018 2175
1570.0 2909 2683 1973 2028 0 1274 540 1556 447 1294
1610.0 1430 989 3843 1317 3926 208 3423 3912 1967 2813
1650.0 6727 6477 2700 1834 2373 3100 5484 1568 5970 6742
1690.0 3409 2173 7444 6751 4878 1930 4049 7816 2728 905
1730.0 3154 7275 3233 2933 4399 5718 3197 3042 3036 1605
1770.0 3910 4492 1879 2542 2083 2709 3470 2649 3801 1188
1810.0 1606 1831 813 1478 2069 2935 1620 638 2226 3508
1850.0 1629 298 798 777 1724 3134 871 425 497 790
1890.0 1363 1145 687 515 662 846 1050 1188 1942 711
1930.0 350 506 369 1454 1081 345 379 527 277 951
1970.0 636 325 280 296 206 1183 1035 404 252 328
2010.0 176 524 878 526 267 310 129 403 563 352
2050.0 215 265 162 349 708 259 255 226 248 259
2090.0 450 284 207 230 178 235 277 272 170 262
2130.0 146 219 331 201 222 175 226 143 261 186
2170.0 182 156 171 183 163 193 147 177 132 198
2210.0 168 155 155 155 158 111 170 115 139 93
2250.0 145 91 116 93 81 93 75 130 64 131
2290.0 99 155 103 156 170 149 196 160 256 140
2330.0 282 175 238 161 232 245 186 291 212 277
2370.0 160 266 170 198 178 191 178 173 209 176
2410.0 198 165 219 169 212 192 205 198 199 221
2450.0 171 226 196 227 190 232 213 210 225 211
2490.0 240 193 246 210 234 213 250 226 229 251
2530.0 230 250 229 264 224 252 240 261 244 251
2570.0 266 238 272 246 287 236 279 256 275 265
2610.0 280 285 252 301 261 289 260 311 288 289
2650.0 302 296 310 284 326 285 306 290 325 311
2690.0 317 328 305 320 306 340 300 340 322 332
2730.0 315 336 327 312 335 320 356 304 360 326
2770.0 350 321 348 352 320 361 327 366 344 381
2810.0 344 371 356 352 369 348 378 331 378 364
2850.0 385 357 373 383 376 384 377 415 367 411
2890.0 385 406 370 415 387 374 409 384 434 373
2930.0 439 426 440 408 420 418 427 490 418 473
2970.0 435 476 479 454 473 471 499 440 471 471
3010.0 497 573 476 450 466 540 597 495 425 493
3050.0 447 535 514 512 534 545 403 537 563 489
3090.0 480 486 612 559 536 520 578 600 646 610
3130.0 518 582 496 505 484 517 493 509 494 530
3170.0 522 508 598 543 556 512 564 580 584 522
3210.0 623 563 609 586 573 645 604 575 593 643
3250.0 573 608 672 585 608 523 685 712 671 697
3290.0 626 643 638 595 572 755 745 599 608 692
3330.0 676 663 858 648 577 614 629 873 729 901
3370.0 683 675 599 802 652 797 897 923 794 673
3410.0 662 744 797 1320 880 614 823 954 1013 1379
3450.0 1315 590 1162 1280 1132 908 832 1118 1646 1732
3490.0 1015 1013 1305 2232 2762 1660 1251 983 1575 4062
3530.0 2236 1343 1679 1180 3784 3246 1101 2669 1091 5911
3570.0 5183 1102 1814 1100 4048 5204 2353 4278 1576 2659
3610.0 5141 4949 4719 3594 2882 6459 3612 1242 1562 3428
3650.0 7853 4597 2489 1496 1429 4195 6373 4747 2649 1381
3690.0 5708 2589 1796 2858 1747 3891 6052 2045 3913 5806
3730.0 2667 6264 7335 4382 6059 9208 4365 3919 2774 2404
3770.0 3501 1114 1652 2067 2072 1161 1145 2969 5150 2729
3810.0 2512 844 5981 4386 3229 1799 3577 4986 6088 2098
3850.0 2655 9008 4174 2600 5569 4777 4632 1695 5444 3589
3890.0 4099 2054 3817 5679 6362 781 1690 3179 3327 2999
3930.0 2234 3971 1312 2158 2777 3552 1253 1682 1938 1587
##END=
