##TITLE=WATER
##JCAMP-DX=4.24
##DATA TYPE=INFRARED SPECTRUM
##CLASS=COBLENTZ III
##ORIGIN=DOW CHEMICAL COMPANY
##OWNER=COBLENTZ SOCIETY
Collection (C) 2007 copyright by the U.S. Secretary of Commerce
on behalf of the United States of America. All rights reserved.
##DATE=1969/10/21
##CAS REGISTRY NO=7732-18-5
##MOLFORM=H2O
##SOURCE REFERENCE=COBLENTZ NO. 10116
##$NIST SOURCE=COBLENTZ
##$NIST IMAGE=cob10116
##SPECTROMETER/DATA SYSTEM=DOW KBr FOREPRISM-GRATING
##INSTRUMENT PARAMETERS=BLAZED AT 3.5, 12.0, 20.0 MICRON, CHANGED AT 5.0, 7.5, 14.9 MICRON
##STATE=LIQUID (NEAT)
##PATH LENGTH=0.0024 CAPILLARY, AgCl PLATES
##SAMPLING PROCEDURE=TRANSMISSION
##RESOLUTION=4
##DATA PROCESSING=DIGITIZED BY NIST FROM HARD COPY (FROM TWO SEGMENTS)
##XUNITS=1/CM
##YUNITS=TRANSMITTANCE
##XFACTOR=1.000000
##YFACTOR=1
##DELTAX=0.870985
##FIRSTX=388.677
##LASTX=3799.46
##FIRSTY=0.438
##MAXX=3799.46
##MINX=388.677
##MAXY=0.987
##MINY=0.001
##NPOINTS=3917
##XYDATA=(X++(Y..Y))
388.677000 0.4380 0.4380 0.4370 0.4370 0.4350
393.031927 0.4350 0.4340 0.4330 0.4330 0.4330
397.386854 0.4330 0.4330 0.4330 0.4300 0.4300
401.741781 0.4300 0.4300 0.4300 0.4300 0.4300
406.096708 0.4300 0.4300 0.4300 0.4300 0.4300
410.451635 0.4290 0.4290 0.4290 0.4290 0.4290
414.806562 0.4290 0.4270 0.4270 0.4260 0.4260
419.161489 0.4260 0.4260 0.4250 0.4250 0.4250
423.516416 0.4230 0.4230 0.4230 0.4220 0.4220
427.871343 0.4200 0.4200 0.4200 0.4190 0.4180
432.226270 0.4180 0.4180 0.4160 0.4160 0.4160
436.581197 0.4150 0.4150 0.4140 0.4140 0.4120
440.936124 0.4120 0.4110 0.4110 0.4110 0.4100
445.291051 0.4100 0.4100 0.4080 0.4080 0.4080
449.645978 0.4080 0.4070 0.4050 0.4050 0.4050
454.000905 0.4050 0.4040 0.4030 0.4030 0.4010
458.355832 0.4010 0.4010 0.4000 0.4000 0.4000
462.710759 0.3990 0.3990 0.3970 0.3960 0.3960
467.065686 0.3950 0.3930 0.3930 0.3920 0.3890
471.420614 0.3890 0.3880 0.3880 0.3860 0.3850
475.775541 0.3850 0.3840 0.3840 0.3820 0.3820
480.130468 0.3810 0.3810 0.3800 0.3800 0.3780
484.485395 0.3770 0.3760 0.3760 0.3740 0.3740
488.840322 0.3730 0.3730 0.3710 0.3710 0.3700
493.195249 0.3690 0.3670 0.3660 0.3650 0.3630
497.550176 0.3620 0.3620 0.3610 0.3590 0.3580
501.905103 0.3560 0.3550 0.3550 0.3540 0.3540
506.260030 0.3540 0.3520 0.3520 0.3510 0.3500
510.614957 0.3480 0.3480 0.3470 0.3470 0.3460
514.969884 0.3460 0.3440 0.3430 0.3430 0.3410
519.324811 0.3410 0.3400 0.3390 0.3370 0.3370
523.679738 0.3370 0.3370 0.3370 0.3360 0.3360
528.034665 0.3360 0.3350 0.3330 0.3320 0.3320
532.389592 0.3320 0.3320 0.3310 0.3310 0.3310
536.744519 0.3310 0.3290 0.3280 0.3260 0.3250
541.099446 0.3250 0.3250 0.3240 0.3240 0.3240
545.454373 0.3220 0.3220 0.3210 0.3210 0.3200
549.809300 0.3180 0.3170 0.3170 0.3160 0.3160
554.164227 0.3140 0.3140 0.3140 0.3130 0.3110
558.519154 0.3110 0.3100 0.3090 0.3070 0.3070
562.874081 0.3070 0.3060 0.3060 0.3060 0.3050
567.229008 0.3050 0.3030 0.3030 0.3020 0.3010
571.583935 0.3010 0.3010 0.3010 0.2990 0.2990
575.938862 0.2990 0.2980 0.2980 0.2980 0.2970
580.293789 0.2970 0.2970 0.2950 0.2950 0.2950
584.648716 0.2940 0.2940 0.2940 0.2920 0.2920
589.003643 0.2910 0.2900 0.2900 0.2900 0.2880
593.358570 0.2880 0.2880 0.2880 0.2880 0.2870
597.713497 0.2870 0.2870 0.2870 0.2870 0.2860
602.068424 0.2860 0.2860 0.2860 0.2840 0.2840
606.423351 0.2840 0.2840 0.2840 0.2840 0.2840
610.778278 0.2840 0.2830 0.2830 0.2830 0.2830
615.133205 0.2830 0.2830 0.2820 0.2820 0.2820
619.488132 0.2820 0.2820 0.2820 0.2820 0.2800
623.843059 0.2800 0.2800 0.2800 0.2800 0.2800
628.197986 0.2790 0.2790 0.2790 0.2790 0.2790
632.552914 0.2790 0.2770 0.2770 0.2770 0.2770
636.907841 0.2770 0.2770 0.2770 0.2770 0.2770
641.262768 0.2760 0.2760 0.2760 0.2760 0.2760
645.617695 0.2760 0.2760 0.2760 0.2760 0.2750
649.972622 0.2750 0.2750 0.2750 0.2750 0.2750
654.327549 0.2750 0.2750 0.2750 0.2730 0.2730
658.682476 0.2730 0.2730 0.2730 0.2730 0.2730
663.037403 0.2730 0.2730 0.2730 0.2730 0.2730
667.392330 0.2730 0.2730 0.2730 0.2730 0.2730
671.747257 0.2730 0.2730 0.2730 0.2730 0.2730
676.102184 0.2730 0.2730 0.2730 0.2730 0.2730
680.457111 0.2730 0.2720 0.2720 0.2720 0.2720
684.812038 0.2720 0.2720 0.2720 0.2720 0.2720
689.166965 0.2720 0.2720 0.2720 0.2720 0.2720
693.521892 0.2720 0.2720 0.2730 0.2730 0.2730
697.876819 0.2730 0.2730 0.2730 0.2730 0.2750
702.231746 0.2750 0.2750 0.2750 0.2750 0.2750
706.586673 0.2750 0.2760 0.2760 0.2760 0.2760
710.941600 0.2760 0.2760 0.2760 0.2760 0.2760
715.296527 0.2760 0.2760 0.2760 0.2760 0.2770
719.651454 0.2770 0.2770 0.2790 0.2790 0.2800
724.006381 0.2820 0.2820 0.2820 0.2820 0.2820
728.361308 0.2820 0.2830 0.2830 0.2840 0.2840
732.716235 0.2840 0.2860 0.2860 0.2870 0.2870
737.071162 0.2870 0.2880 0.2880 0.2880 0.2900
741.426089 0.2910 0.2910 0.2920 0.2920 0.2940
745.781016 0.2940 0.2950 0.2970 0.2970 0.2980
750.135943 0.2990 0.2990 0.2990 0.3010 0.3010
754.490870 0.3010 0.3010 0.3020 0.3030 0.3050
758.845797 0.3050 0.3060 0.3060 0.3060 0.3070
763.200724 0.3090 0.3100 0.3100 0.3110 0.3130
767.555651 0.3130 0.3140 0.3140 0.3160 0.3160
771.910578 0.3160 0.3170 0.3170 0.3180 0.3200
776.265505 0.3200 0.3220 0.3220 0.3220 0.3220
780.620432 0.3240 0.3240 0.3240 0.3250 0.3260
784.975359 0.3290 0.3290 0.3310 0.3320 0.3320
789.330286 0.3330 0.3350 0.3360 0.3360 0.3370
793.685214 0.3390 0.3390 0.3390 0.3400 0.3410
798.040141 0.3430 0.3440 0.3460 0.3470 0.3470
802.395068 0.3480 0.3480 0.3510 0.3510 0.3540
806.749995 0.3540 0.3550 0.3550 0.3560 0.3580
811.104922 0.3620 0.3620 0.3630 0.3650 0.3660
815.459849 0.3670 0.3690 0.3700 0.3710 0.3730
819.814776 0.3740 0.3780 0.3810 0.3810 0.3820
824.169703 0.3840 0.3860 0.3880 0.3880 0.3890
828.524630 0.3890 0.3920 0.3970 0.3990 0.4000
832.879557 0.4010 0.4030 0.4050 0.4080 0.4110
837.234484 0.4140 0.4150 0.4150 0.4180 0.4190
841.589411 0.4230 0.4250 0.4260 0.4270 0.4290
845.944338 0.4300 0.4310 0.4340 0.4350 0.4370
850.299265 0.4400 0.4440 0.4460 0.4480 0.4490
854.654192 0.4550 0.4560 0.4570 0.4590 0.4610
859.009119 0.4650 0.4670 0.4680 0.4700 0.4710
863.364046 0.4740 0.4740 0.4780 0.4790 0.4800
867.718973 0.4830 0.4850 0.4890 0.4900 0.4930
872.073900 0.4950 0.4950 0.5000 0.5010 0.5020
876.428827 0.5040 0.5080 0.5120 0.5130 0.5190
880.783754 0.5230 0.5250 0.5280 0.5290 0.5350
885.138681 0.5360 0.5390 0.5420 0.5470 0.5500
889.493608 0.5510 0.5550 0.5610 0.5610 0.5620
893.848535 0.5640 0.5660 0.5700 0.5740 0.5760
898.203462 0.5770 0.5800 0.5830 0.5870 0.5880
902.558389 0.5880 0.5890 0.5910 0.5950 0.5960
906.913316 0.6000 0.6020 0.6020 0.6040 0.6070
911.268243 0.6110 0.6130 0.6150 0.6150 0.6170
915.623170 0.6170 0.6190 0.6230 0.6250 0.6300
919.978097 0.6300 0.6320 0.6320 0.6330 0.6360
924.333024 0.6370 0.6380 0.6410 0.6450 0.6470
928.687951 0.6480 0.6510 0.6520 0.6530 0.6550
933.042878 0.6580 0.6600 0.6620 0.6620 0.6620
937.397805 0.6640 0.6640 0.6680 0.6710 0.6740
941.752732 0.6750 0.6750 0.6770 0.6770 0.6790
946.107659 0.6810 0.6830 0.6850 0.6850 0.6860
950.462586 0.6890 0.6900 0.6920 0.6920 0.6940
954.817514 0.6960 0.6970 0.6980 0.7000 0.7000
959.172441 0.7010 0.7020 0.7070 0.7070 0.7080
963.527368 0.7090 0.7110 0.7110 0.7130 0.7130
967.882295 0.7150 0.7190 0.7200 0.7220 0.7230
972.237222 0.7240 0.7240 0.7240 0.7260 0.7260
976.592149 0.7260 0.7270 0.7280 0.7310 0.7320
980.947076 0.7340 0.7350 0.7350 0.7350 0.7370
985.302003 0.7370 0.7370 0.7380 0.7410 0.7410
989.656930 0.7410 0.7420 0.7430 0.7430 0.7430
994.011857 0.7460 0.7470 0.7470 0.7490 0.7490
998.366784 0.7520 0.7570 0.7580 0.7580 0.7580
1002.721711 0.7600 0.7600 0.7600 0.7600 0.7610
1007.076638 0.7610 0.7610 0.7610 0.7620 0.7620
1011.431565 0.7620 0.7620 0.7620 0.7620 0.7640
1015.786492 0.7640 0.7650 0.7680 0.7680 0.7690
1020.141419 0.7710 0.7710 0.7710 0.7720 0.7720
1024.496346 0.7720 0.7720 0.7720 0.7720 0.7720
1028.851273 0.7730 0.7750 0.7760 0.7760 0.7760
1033.206200 0.7760 0.7760 0.7760 0.7760 0.7760
1037.561127 0.7770 0.7770 0.7770 0.7790 0.7800
1041.916054 0.7800 0.7800 0.7820 0.7820 0.7830
1046.270981 0.7830 0.7830 0.7830 0.7830 0.7830
1050.625908 0.7840 0.7840 0.7840 0.7840 0.7840
1054.980835 0.7840 0.7840 0.7840 0.7860 0.7860
1059.335762 0.7860 0.7860 0.7860 0.7870 0.7870
1063.690689 0.7880 0.7880 0.7880 0.7880 0.7880
1068.045616 0.7880 0.7880 0.7900 0.7900 0.7880
1072.400543 0.7880 0.7880 0.7880 0.7880 0.7900
1076.755470 0.7900 0.7940 0.7940 0.7950 0.7950
1081.110397 0.7950 0.7940 0.7940 0.7950 0.7950
1085.465324 0.7950 0.7950 0.7950 0.7950 0.7950
1089.820251 0.7970 0.7970 0.7950 0.7950 0.7950
1094.175178 0.7950 0.7970 0.7970 0.7970 0.7980
1098.530105 0.7980 0.7980 0.7980 0.7980 0.7980
1102.885032 0.7980 0.7970 0.7980 0.7980 0.7980
1107.239959 0.7980 0.7990 0.7990 0.7990 0.7990
1111.594886 0.7990 0.7990 0.7990 0.7990 0.7990
1115.949814 0.7990 0.7990 0.7990 0.7990 0.7990
1120.304741 0.7990 0.7990 0.7990 0.7990 0.7990
1124.659668 0.7990 0.7990 0.7990 0.7990 0.7990
1129.014595 0.7990 0.7990 0.7980 0.7980 0.7980
1133.369522 0.7990 0.7990 0.7990 0.8010 0.8010
1137.724449 0.8010 0.8010 0.8010 0.7990 0.8010
1142.079376 0.8010 0.8010 0.8010 0.8010 0.8010
1146.434303 0.8010 0.8010 0.8010 0.8010 0.8020
1150.789230 0.8020 0.8020 0.8020 0.8020 0.8010
1155.144157 0.8010 0.8010 0.8010 0.8010 0.8010
1159.499084 0.8010 0.7980 0.7980 0.7980 0.7980
1163.854011 0.7990 0.7990 0.7990 0.7990 0.7980
1168.208938 0.7980 0.7980 0.7970 0.7980 0.7980
1172.563865 0.7980 0.7990 0.7990 0.7990 0.7990
1176.918792 0.7980 0.7980 0.7980 0.7980 0.7990
1181.273719 0.7980 0.7980 0.7980 0.7970 0.7980
1185.628646 0.7980 0.7980 0.7970 0.7970 0.7970
1189.983573 0.7970 0.7970 0.7970 0.7970 0.7970
1194.338500 0.7970 0.7970 0.7970 0.7970 0.7970
1198.693427 0.7970 0.7970 0.7970 0.7950 0.7950
1203.048354 0.7950 0.7950 0.7950 0.7950 0.7940
1207.403281 0.7940 0.7940 0.7950 0.7940 0.7940
1211.758208 0.7940 0.7940 0.7940 0.7940 0.7940
1216.113135 0.7940 0.7940 0.7940 0.7920 0.7920
1220.468062 0.7920 0.7920 0.7920 0.7920 0.7920
1224.822989 0.7910 0.7910 0.7910 0.7910 0.7910
1229.177916 0.7900 0.7900 0.7900 0.7900 0.7900
1233.532843 0.7880 0.7880 0.7880 0.7880 0.7880
1237.887770 0.7870 0.7870 0.7870 0.7870 0.7870
1242.242697 0.7870 0.7870 0.7870 0.7860 0.7860
1246.597624 0.7860 0.7860 0.7860 0.7860 0.7860
1250.952551 0.7860 0.7860 0.7860 0.7860 0.7860
1255.307478 0.7860 0.7860 0.7860 0.7860 0.7860
1259.662405 0.7860 0.7860 0.7860 0.7860 0.7860
1264.017332 0.7860 0.7860 0.7860 0.7860 0.7860
1268.372259 0.7860 0.7840 0.7840 0.7840 0.7840
1272.727186 0.7840 0.7840 0.7840 0.7840 0.7840
1277.082114 0.7840 0.7840 0.7840 0.7840 0.7830
1281.437041 0.7830 0.7830 0.7830 0.7830 0.7830
1285.791968 0.7830 0.7830 0.7830 0.7830 0.7840
1290.146895 0.7830 0.7840 0.7830 0.7830 0.7830
1294.501822 0.7830 0.7830 0.7830 0.7820 0.7820
1298.856749 0.7820 0.7820 0.7820 0.7800 0.7790
1303.211676 0.7790 0.7790 0.7790 0.7790 0.7790
1307.566603 0.7790 0.7790 0.7790 0.7790 0.7790
1311.921530 0.7790 0.7790 0.7790 0.7790 0.7790
1316.276457 0.7790 0.7790 0.7790 0.7790 0.7820
1320.631384 0.7820 0.7800 0.7800 0.7800 0.7800
1324.986311 0.7800 0.7800 0.7800 0.7800 0.7800
1329.341238 0.7800 0.7800 0.7790 0.7770 0.7770
1333.696165 0.7770 0.7770 0.7770 0.7770 0.7770
1338.051092 0.7770 0.7770 0.7770 0.7760 0.7760
1342.406019 0.7770 0.7770 0.7760 0.7760 0.7760
1346.760946 0.7760 0.7760 0.7750 0.7760 0.7750
1351.115873 0.7730 0.7730 0.7730 0.7730 0.7730
1355.470800 0.7730 0.7720 0.7720 0.7720 0.7720
1359.825727 0.7720 0.7720 0.7720 0.7720 0.7720
1364.180654 0.7720 0.7730 0.7730 0.7730 0.7730
1368.535581 0.7730 0.7730 0.7730 0.7750 0.7760
1372.890508 0.7760 0.7760 0.7760 0.7760 0.7760
1377.245435 0.7760 0.7760 0.7760 0.7760 0.7760
1381.600362 0.7760 0.7760 0.7750 0.7730 0.7720
1385.955289 0.7720 0.7720 0.7710 0.7710 0.7710
1390.310216 0.7710 0.7710 0.7710 0.7690 0.7690
1394.665143 0.7690 0.7690 0.7690 0.7690 0.7690
1399.020070 0.7690 0.7690 0.7690 0.7690 0.7690
1403.374997 0.7690 0.7690 0.7690 0.7690 0.7680
1407.729924 0.7680 0.7680 0.7680 0.7680 0.7680
1412.084851 0.7680 0.7680 0.7680 0.7680 0.7680
1416.439778 0.7680 0.7680 0.7680 0.7680 0.7680
1420.794705 0.7680 0.7680 0.7680 0.7680 0.7680
1425.149632 0.7670 0.7670 0.7670 0.7670 0.7670
1429.504559 0.7650 0.7650 0.7650 0.7650 0.7650
1433.859486 0.7650 0.7650 0.7650 0.7650 0.7650
1438.214414 0.7640 0.7640 0.7640 0.7640 0.7610
1442.569341 0.7610 0.7610 0.7610 0.7610 0.7610
1446.924268 0.7610 0.7610 0.7600 0.7600 0.7600
1451.279195 0.7580 0.7580 0.7580 0.7580 0.7580
1455.634122 0.7570 0.7570 0.7580 0.7580 0.7570
1459.989049 0.7570 0.7570 0.7560 0.7540 0.7540
1464.343976 0.7540 0.7530 0.7530 0.7530 0.7530
1468.698903 0.7520 0.7520 0.7500 0.7500 0.7500
1473.053830 0.7490 0.7490 0.7490 0.7490 0.7470
1477.408757 0.7470 0.7460 0.7460 0.7450 0.7450
1481.763684 0.7450 0.7450 0.7450 0.7450 0.7430
1486.118611 0.7430 0.7430 0.7420 0.7410 0.7410
1490.473538 0.7390 0.7380 0.7380 0.7370 0.7370
1494.828465 0.7370 0.7350 0.7350 0.7350 0.7340
1499.183392 0.7340 0.7320 0.7310 0.7300 0.7280
1503.538319 0.7270 0.7270 0.7270 0.7260 0.7260
1507.893246 0.7240 0.7240 0.7240 0.7240 0.7230
1512.248173 0.7220 0.7220 0.7220 0.7200 0.7190
1516.603100 0.7170 0.7160 0.7160 0.7150 0.7130
1520.958027 0.7130 0.7110 0.7110 0.7110 0.7090
1525.312954 0.7080 0.7070 0.7070 0.7050 0.7020
1529.667881 0.7010 0.7000 0.7000 0.6980 0.6970
1534.022808 0.6960 0.6940 0.6930 0.6920 0.6920
1538.377735 0.6920 0.6900 0.6890 0.6860 0.6860
1542.732662 0.6830 0.6810 0.6780 0.6770 0.6750
1547.087589 0.6730 0.6710 0.6710 0.6640 0.6630
1551.442516 0.6620 0.6600 0.6600 0.6590 0.6560
1555.797443 0.6550 0.6530 0.6520 0.6510 0.6490
1560.152370 0.6470 0.6450 0.6410 0.6380 0.6370
1564.507297 0.6340 0.6330 0.6300 0.6300 0.6250
1568.862224 0.6250 0.6210 0.6170 0.6150 0.6130
1573.217151 0.6080 0.6060 0.6030 0.6020 0.5960
1577.572078 0.5920 0.5910 0.5880 0.5840 0.5800
1581.927005 0.5770 0.5740 0.5680 0.5650 0.5620
1586.281932 0.5530 0.5510 0.5490 0.5430 0.5400
1590.636859 0.5290 0.5250 0.5190 0.5130 0.5080
1594.991786 0.5040 0.5010 0.4930 0.4900 0.4870
1599.346714 0.4800 0.4740 0.4670 0.4600 0.4560
1603.701641 0.4480 0.4450 0.4370 0.4300 0.4260
1608.056568 0.4180 0.4100 0.4070 0.3990 0.3910
1612.411495 0.3880 0.3711 0.3690 0.3620 0.3550
1616.766422 0.3500 0.3460 0.3410 0.3400 0.3320
1621.121349 0.3290 0.3240 0.3170 0.3090 0.3010
1625.476276 0.2940 0.2870 0.2820 0.2790 0.2760
1629.831203 0.2730 0.2690 0.2670 0.2670 0.2650
1634.186130 0.2650 0.2640 0.2640 0.2640 0.2640
1638.541057 0.2640 0.2640 0.2640 0.2650 0.2650
1642.895984 0.2670 0.2670 0.2670 0.2680 0.2680
1647.250911 0.2710 0.2710 0.2730 0.2730 0.2760
1651.605838 0.2830 0.2860 0.2910 0.2940 0.2990
1655.960765 0.3010 0.3050 0.3070 0.3140 0.3160
1660.315692 0.3210 0.3240 0.3290 0.3290 0.3320
1664.670619 0.3360 0.3370 0.3410 0.3460 0.3520
1669.025546 0.3550 0.3580 0.3690 0.3730 0.3770
1673.380473 0.3800 0.3860 0.3960 0.3990 0.4070
1677.735400 0.4140 0.4160 0.4200 0.4270 0.4340
1682.090327 0.4410 0.4460 0.4550 0.4590 0.4650
1686.445254 0.4700 0.4760 0.4820 0.4900 0.4950
1690.800181 0.5090 0.5140 0.5240 0.5340 0.5400
1695.155108 0.5590 0.5650 0.5730 0.5790 0.5840
1699.510035 0.5940 0.6030 0.6100 0.6150 0.6190
1703.864962 0.6290 0.6340 0.6380 0.6450 0.6490
1708.219889 0.6590 0.6600 0.6700 0.6750 0.6810
1712.574816 0.6850 0.6930 0.6970 0.7050 0.7090
1716.929743 0.7150 0.7230 0.7240 0.7280 0.7340
1721.284670 0.7410 0.7470 0.7540 0.7570 0.7610
1725.639597 0.7670 0.7680 0.7710 0.7750 0.7770
1729.994524 0.7820 0.7860 0.7900 0.7940 0.7970
1734.349451 0.8010 0.8030 0.8050 0.8100 0.8110
1738.704378 0.8140 0.8160 0.8160 0.8200 0.8220
1743.059305 0.8240 0.8260 0.8280 0.8310 0.8310
1747.414232 0.8320 0.8350 0.8370 0.8390 0.8410
1751.769159 0.8410 0.8430 0.8430 0.8460 0.8500
1756.124086 0.8500 0.8510 0.8520 0.8520 0.8520
1760.479014 0.8540 0.8560 0.8590 0.8610 0.8620
1764.833941 0.8630 0.8650 0.8660 0.8700 0.8710
1769.188868 0.8730 0.8740 0.8760 0.8760 0.8770
1773.543795 0.8770 0.8770 0.8780 0.8780 0.8780
1777.898722 0.8800 0.8810 0.8820 0.8840 0.8850
1782.253649 0.8860 0.8880 0.8910 0.8890 0.8910
1786.608576 0.8910 0.8910 0.8920 0.8920 0.8930
1790.963503 0.8930 0.8950 0.8950 0.8950 0.8930
1795.318430 0.8960 0.8960 0.8970 0.8970 0.8990
1799.673357 0.8990 0.9000 0.9000 0.9000 0.9000
1804.028284 0.9000 0.9010 0.9010 0.9010 0.9010
1808.383211 0.9010 0.9010 0.9030 0.9040 0.9050
1812.738138 0.9050 0.9050 0.9050 0.9070 0.9070
1817.093065 0.9070 0.9070 0.9080 0.9080 0.9100
1821.447992 0.9110 0.9100 0.9110 0.9110 0.9110
1825.802919 0.9120 0.9120 0.9120 0.9120 0.9120
1830.157846 0.9140 0.9140 0.9120 0.9120 0.9140
1834.512773 0.9140 0.9140 0.9140 0.9140 0.9140
1838.867700 0.9150 0.9150 0.9140 0.9150 0.9150
1843.222627 0.9150 0.9150 0.9160 0.9160 0.9180
1847.577554 0.9180 0.9180 0.9180 0.9180 0.9180
1851.932481 0.9160 0.9160 0.9180 0.9180 0.9180
1856.287408 0.9180 0.9180 0.9180 0.9180 0.9180
1860.642335 0.9180 0.9180 0.9180 0.9190 0.9190
1864.997262 0.9190 0.9190 0.9190 0.9190 0.9190
1869.352189 0.9190 0.9190 0.9180 0.9180 0.9180
1873.707116 0.9180 0.9180 0.9180 0.9180 0.9180
1878.062043 0.9180 0.9190 0.9190 0.9190 0.9180
1882.416970 0.9180 0.9180 0.9180 0.9180 0.9180
1886.771897 0.9180 0.9180 0.9180 0.9180 0.9180
1891.126824 0.9180 0.9180 0.9160 0.9160 0.9160
1895.481751 0.9160 0.9160 0.9150 0.9150 0.9150
1899.836678 0.9150 0.9150 0.9150 0.9150 0.9150
1904.191605 0.9150 0.9150 0.9150 0.9150 0.9150
1908.546532 0.9150 0.9150 0.9150 0.9150 0.9140
1912.901459 0.9140 0.9140 0.9140 0.9140 0.9140
1917.256386 0.9140 0.9140 0.9140 0.9140 0.9120
1921.611314 0.9120 0.9120 0.9120 0.9110 0.9110
1925.966241 0.9100 0.9100 0.9100 0.9080 0.9080
1930.321168 0.9080 0.9070 0.9070 0.9070 0.9070
1934.676095 0.9050 0.9050 0.9040 0.9040 0.9030
1939.031022 0.9030 0.9030 0.9030 0.9030 0.9030
1943.385949 0.9030 0.9010 0.9010 0.9010 0.9010
1947.740876 0.9010 0.9000 0.9000 0.8990 0.8970
1952.095803 0.8970 0.8990 0.8970 0.8970 0.8970
1956.450730 0.8970 0.8960 0.8960 0.8960 0.8950
1960.805657 0.8930 0.8920 0.8920 0.8920 0.8910
1965.160584 0.8910 0.8890 0.8890 0.8890 0.8890
1969.515511 0.8890 0.8890 0.8880 0.8860 0.8860
1973.870438 0.8850 0.8850 0.8850 0.8850 0.8840
1978.225365 0.8840 0.8840 0.8840 0.8820 0.8810
1982.580292 0.8810 0.8800 0.8800 0.8780 0.8780
1986.935219 0.8780 0.8770 0.8770 0.8760 0.8760
1991.290146 0.8740 0.8740 0.8740 0.8730 0.8730
1995.645073 0.8730 0.8730 0.8730 0.8730 0.8730
2000.000000 0.8710 0.8710 0.8710 0.8710 0.8710
2004.354927 0.8720 0.8730 0.8735 0.8740 0.8740
2008.709854 0.8740 0.8750 0.8760 0.8760 0.8760
2013.064781 0.8745 0.8730 0.8730 0.8730 0.8720
2017.419708 0.8710 0.8710 0.8710 0.8705 0.8700
2021.774635 0.8685 0.8670 0.8665 0.8660 0.8660
2026.129562 0.8660 0.8655 0.8650 0.8650 0.8650
2030.484489 0.8650 0.8650 0.8640 0.8630 0.8630
2034.839416 0.8630 0.8625 0.8620 0.8615 0.8610
2039.194343 0.8600 0.8590 0.8585 0.8580 0.8580
2043.549270 0.8580 0.8580 0.8580 0.8580 0.8580
2047.904197 0.8570 0.8560 0.8555 0.8550 0.8545
2052.259124 0.8540 0.8540 0.8540 0.8540 0.8540
2056.614051 0.8530 0.8520 0.8520 0.8520 0.8520
2060.968978 0.8520 0.8520 0.8520 0.8520 0.8520
2065.323905 0.8520 0.8520 0.8515 0.8510 0.8510
2069.678832 0.8510 0.8505 0.8500 0.8500 0.8500
2074.033759 0.8500 0.8500 0.8500 0.8500 0.8500
2078.388686 0.8500 0.8490 0.8480 0.8480 0.8480
2082.743614 0.8480 0.8480 0.8475 0.8470 0.8465
2087.098541 0.8460 0.8460 0.8460 0.8460 0.8460
2091.453468 0.8450 0.8440 0.8440 0.8440 0.8440
2095.808395 0.8440 0.8440 0.8440 0.8440 0.8440
2100.163322 0.8440 0.8440 0.8435 0.8430 0.8430
2104.518249 0.8430 0.8430 0.8430 0.8430 0.8430
2108.873176 0.8430 0.8430 0.8430 0.8430 0.8430
2113.228103 0.8430 0.8430 0.8430 0.8430 0.8430
2117.583030 0.8430 0.8430 0.8430 0.8430 0.8430
2121.937957 0.8430 0.8430 0.8430 0.8430 0.8430
2126.292884 0.8430 0.8430 0.8430 0.8430 0.8430
2130.647811 0.8430 0.8430 0.8430 0.8430 0.8430
2135.002738 0.8430 0.8430 0.8430 0.8430 0.8421
2139.357665 0.8410 0.8410 0.8410 0.8419 0.8429
2143.712592 0.8430 0.8430 0.8430 0.8430 0.8430
2148.067519 0.8430 0.8430 0.8430 0.8430 0.8430
2152.422446 0.8430 0.8430 0.8430 0.8430 0.8430
2156.777373 0.8430 0.8430 0.8430 0.8430 0.8430
2161.132300 0.8435 0.8440 0.8449 0.8459 0.8460
2165.487227 0.8460 0.8465 0.8470 0.8484 0.8499
2169.842154 0.8500 0.8500 0.8505 0.8510 0.8524
2174.197081 0.8539 0.8545 0.8550 0.8555 0.8560
2178.552008 0.8560 0.8560 0.8551 0.8541 0.8540
2182.906935 0.8540 0.8531 0.8521 0.8520 0.8520
2187.261862 0.8520 0.8520 0.8529 0.8539 0.8540
2191.616789 0.8540 0.8545 0.8550 0.8550 0.8550
2195.971716 0.8550 0.8550 0.8555 0.8560 0.8560
2200.326643 0.8560 0.8569 0.8579 0.8585 0.8590
2204.681570 0.8590 0.8590 0.8590 0.8590 0.8599
2209.036497 0.8609 0.8615 0.8620 0.8625 0.8630
2213.391424 0.8639 0.8649 0.8650 0.8650 0.8655
2217.746351 0.8660 0.8660 0.8660 0.8678 0.8698
2222.101278 0.8700 0.8700 0.8700 0.8700 0.8700
2226.456205 0.8700 0.8705 0.8710 0.8719 0.8729
2230.811132 0.8735 0.8740 0.8749 0.8759 0.8760
2235.166059 0.8760 0.8765 0.8770 0.8770 0.8770
2239.520986 0.8770 0.8770 0.8775 0.8779 0.8794
2243.875914 0.8809 0.8810 0.8810 0.8810 0.8810
2248.230841 0.8815 0.8820 0.8820 0.8820 0.8834
2252.585768 0.8849 0.8855 0.8860 0.8860 0.8860
2256.940695 0.8869 0.8879 0.8884 0.8889 0.8890
2261.295622 0.8890 0.8899 0.8909 0.8910 0.8910
2265.650549 0.8910 0.8910 0.8915 0.8919 0.8920
2270.005476 0.8920 0.8920 0.8920 0.8933 0.8948
2274.360403 0.8954 0.8959 0.8960 0.8960 0.8964
2278.715330 0.8970 0.8970 0.8970 0.8979 0.8989
2283.070257 0.8990 0.8990 0.8994 0.8999 0.9000
2287.425184 0.9000 0.9004 0.9009 0.9019 0.9029
2291.780111 0.9034 0.9039 0.9044 0.9049 0.9050
2296.135038 0.9050 0.9059 0.9069 0.9070 0.9070
2300.489965 0.9074 0.9079 0.9093 0.9108 0.9114
2304.844892 0.9119 0.9120 0.9120 0.9120 0.9120
2309.199819 0.9129 0.9139 0.9158 0.9177 0.9189
2313.554746 0.9199 0.9200 0.9200 0.9200 0.9200
2317.909673 0.9213 0.9228 0.9248 0.9268 0.9296
2322.264600 0.9326 0.9352 0.9377 0.9389 0.9399
2326.619527 0.9400 0.9400 0.9404 0.9409 0.9410
2330.974454 0.9410 0.9414 0.9419 0.9420 0.9420
2335.329381 0.9429 0.9439 0.9440 0.9440 0.9440
2339.684308 0.9440 0.9440 0.9440 0.9440 0.9440
2344.039235 0.9440 0.9440 0.9440 0.9440 0.9440
2348.394162 0.9440 0.9440 0.9440 0.9440 0.9440
2352.749089 0.9444 0.9449 0.9450 0.9450 0.9450
2357.104016 0.9450 0.9454 0.9459 0.9469 0.9479
2361.458943 0.9480 0.9480 0.9480 0.9480 0.9480
2365.813870 0.9480 0.9480 0.9480 0.9471 0.9461
2370.168797 0.9460 0.9460 0.9460 0.9460 0.9456
2374.523724 0.9451 0.9450 0.9450 0.9450 0.9450
2378.878651 0.9450 0.9450 0.9446 0.9441 0.9440
2383.233578 0.9440 0.9440 0.9440 0.9440 0.9440
2387.588505 0.9440 0.9440 0.9440 0.9440 0.9444
2391.943432 0.9449 0.9454 0.9459 0.9460 0.9460
2396.298359 0.9460 0.9460 0.9460 0.9460 0.9469
2400.653286 0.9479 0.9480 0.9480 0.9480 0.9480
2405.008214 0.9480 0.9480 0.9484 0.9489 0.9490
2409.363141 0.9490 0.9490 0.9490 0.9494 0.9499
2413.718068 0.9508 0.9518 0.9520 0.9520 0.9520
2418.072995 0.9520 0.9520 0.9520 0.9524 0.9529
2422.427922 0.9530 0.9530 0.9538 0.9548 0.9550
2426.782849 0.9550 0.9550 0.9550 0.9550 0.9550
2431.137776 0.9550 0.9550 0.9558 0.9568 0.9570
2435.492703 0.9570 0.9570 0.9570 0.9570 0.9570
2439.847630 0.9570 0.9570 0.9578 0.9588 0.9590
2444.202557 0.9590 0.9590 0.9590 0.9590 0.9590
2448.557484 0.9590 0.9590 0.9590 0.9590 0.9594
2452.912411 0.9599 0.9600 0.9600 0.9600 0.9600
2457.267338 0.9604 0.9609 0.9610 0.9610 0.9610
2461.622265 0.9610 0.9618 0.9628 0.9630 0.9630
2465.977192 0.9630 0.9630 0.9634 0.9639 0.9640
2470.332119 0.9640 0.9640 0.9640 0.9644 0.9649
2474.687046 0.9650 0.9650 0.9658 0.9668 0.9670
2479.041973 0.9670 0.9670 0.9670 0.9674 0.9679
2483.396900 0.9680 0.9680 0.9680 0.9680 0.9680
2487.751827 0.9680 0.9680 0.9680 0.9688 0.9698
2492.106754 0.9700 0.9700 0.9704 0.9709 0.9710
2496.461681 0.9710 0.9710 0.9710 0.9710 0.9710
2500.816608 0.9714 0.9719 0.9728 0.9738 0.9740
2505.171535 0.9740 0.9740 0.9740 0.9740 0.9740
2509.526462 0.9740 0.9740 0.9740 0.9740 0.9740
2513.881389 0.9740 0.9744 0.9749 0.9750 0.9750
2518.236316 0.9750 0.9750 0.9754 0.9759 0.9768
2522.591243 0.9778 0.9780 0.9780 0.9772 0.9762
2526.946170 0.9760 0.9760 0.9760 0.9760 0.9760
2531.301097 0.9760 0.9768 0.9778 0.9780 0.9780
2535.656024 0.9784 0.9789 0.9790 0.9790 0.9790
2540.010951 0.9790 0.9790 0.9790 0.9794 0.9799
2544.365878 0.9800 0.9800 0.9800 0.9800 0.9808
2548.720805 0.9818 0.9820 0.9820 0.9820 0.9820
2553.075732 0.9820 0.9820 0.9820 0.9820 0.9812
2557.430659 0.9802 0.9808 0.9818 0.9824 0.9829
2561.785586 0.9830 0.9830 0.9830 0.9830 0.9830
2566.140514 0.9830 0.9830 0.9830 0.9830 0.9830
2570.495441 0.9838 0.9848 0.9850 0.9850 0.9842
2574.850368 0.9832 0.9838 0.9848 0.9850 0.9850
2579.205295 0.9850 0.9850 0.9850 0.9850 0.9854
2583.560222 0.9859 0.9860 0.9860 0.9860 0.9860
2587.915149 0.9860 0.9860 0.9864 0.9869 0.9870
2592.270076 0.9870 0.9866 0.9861 0.9860 0.9860
2596.625003 0.9860 0.9860 0.9860 0.9860 0.9860
2600.979930 0.9860 0.9864 0.9869 0.9870 0.9870
2605.334857 0.9870 0.9870 0.9870 0.9870 0.9870
2609.689784 0.9870 0.9870 0.9870 0.9870 0.9870
2614.044711 0.9870 0.9870 0.9870 0.9870 0.9870
2618.399638 0.9870 0.9870 0.9870 0.9870 0.9870
2622.754565 0.9870 0.9870 0.9870 0.9870 0.9870
2627.109492 0.9870 0.9870 0.9870 0.9870 0.9870
2631.464419 0.9870 0.9870 0.9870 0.9870 0.9870
2635.819346 0.9870 0.9870 0.9870 0.9870 0.9870
2640.174273 0.9870 0.9870 0.9870 0.9870 0.9870
2644.529200 0.9870 0.9870 0.9870 0.9870 0.9870
2648.884127 0.9870 0.9870 0.9870 0.9870 0.9870
2653.239054 0.9870 0.9866 0.9861 0.9860 0.9860
2657.593981 0.9856 0.9851 0.9850 0.9850 0.9850
2661.948908 0.9850 0.9850 0.9850 0.9850 0.9850
2666.303835 0.9850 0.9850 0.9842 0.9832 0.9830
2670.658762 0.9830 0.9830 0.9830 0.9826 0.9821
2675.013689 0.9820 0.9820 0.9820 0.9820 0.9820
2679.368616 0.9820 0.9820 0.9820 0.9820 0.9820
2683.723543 0.9812 0.9802 0.9800 0.9800 0.9800
2688.078470 0.9800 0.9800 0.9800 0.9796 0.9791
2692.433397 0.9786 0.9781 0.9780 0.9780 0.9780
2696.788324 0.9780 0.9780 0.9780 0.9780 0.9780
2701.143251 0.9772 0.9762 0.9760 0.9760 0.9760
2705.498178 0.9760 0.9760 0.9760 0.9756 0.9751
2709.853105 0.9750 0.9750 0.9746 0.9741 0.9740
2714.208032 0.9740 0.9740 0.9740 0.9733 0.9723
2718.562959 0.9720 0.9720 0.9716 0.9711 0.9710
2722.917886 0.9710 0.9710 0.9710 0.9706 0.9701
2727.272814 0.9700 0.9700 0.9693 0.9683 0.9676
2731.627741 0.9671 0.9670 0.9670 0.9663 0.9653
2735.982668 0.9650 0.9650 0.9646 0.9641 0.9640
2740.337595 0.9640 0.9636 0.9631 0.9630 0.9630
2744.692522 0.9623 0.9613 0.9606 0.9601 0.9596
2749.047449 0.9591 0.9590 0.9590 0.9583 0.9573
2753.402376 0.9566 0.9561 0.9560 0.9560 0.9556
2757.757303 0.9551 0.9543 0.9533 0.9530 0.9530
2762.112230 0.9519 0.9504 0.9496 0.9491 0.9486
2766.467157 0.9481 0.9473 0.9463 0.9456 0.9451
2770.822084 0.9446 0.9441 0.9433 0.9423 0.9420
2775.177011 0.9420 0.9416 0.9411 0.9406 0.9401
2779.531938 0.9393 0.9383 0.9376 0.9371 0.9363
2783.886865 0.9353 0.9350 0.9350 0.9346 0.9341
2788.241792 0.9336 0.9331 0.9319 0.9304 0.9296
2792.596719 0.9291 0.9283 0.9273 0.9266 0.9261
2796.951646 0.9260 0.9260 0.9260 0.9260 0.9249
2801.306573 0.9234 0.9219 0.9204 0.9196 0.9191
2805.661500 0.9179 0.9164 0.9156 0.9151 0.9146
2810.016427 0.9141 0.9133 0.9123 0.9116 0.9111
2814.371354 0.9099 0.9084 0.9076 0.9072 0.9070
2818.726281 0.9070 0.9059 0.9044 0.9029 0.9014
2823.081208 0.9003 0.8993 0.8979 0.8964 0.8956
2827.436135 0.8951 0.8943 0.8933 0.8923 0.8913
2831.791062 0.8889 0.8859 0.8840 0.8825 0.8813
2836.145989 0.8803 0.8793 0.8783 0.8776 0.8771
2840.500916 0.8759 0.8744 0.8737 0.8731 0.8723
2844.855843 0.8713 0.8707 0.8702 0.8697 0.8692
2849.210770 0.8683 0.8673 0.8663 0.8653 0.8640
2853.565697 0.8624 0.8620 0.8620 0.8617 0.8612
2857.920624 0.8603 0.8593 0.8580 0.8565 0.8553
2862.275551 0.8543 0.8533 0.8523 0.8520 0.8520
2866.630478 0.8517 0.8512 0.8500 0.8485 0.8466
2870.985405 0.8446 0.8430 0.8415 0.8403 0.8393
2875.340332 0.8383 0.8373 0.8367 0.8362 0.8357
2879.695259 0.8352 0.8340 0.8325 0.8300 0.8270
2884.050186 0.8257 0.8252 0.8240 0.8225 0.8213
2888.405114 0.8203 0.8190 0.8175 0.8156 0.8136
2892.760041 0.8109 0.8079 0.8067 0.8062 0.8057
2897.114968 0.8052 0.8036 0.8016 0.7996 0.7977
2901.469895 0.7960 0.7945 0.7927 0.7907 0.7880
2905.824822 0.7850 0.7833 0.7823 0.7810 0.7795
2910.179749 0.7763 0.7723 0.7700 0.7685 0.7656
2914.534676 0.7621 0.7600 0.7585 0.7580 0.7580
2918.889603 0.7577 0.7572 0.7533 0.7479 0.7447
2923.244530 0.7426 0.7417 0.7412 0.7396 0.7377
2927.599457 0.7360 0.7345 0.7327 0.7307 0.7280
2931.954384 0.7250 0.7223 0.7198 0.7180 0.7165
2936.309311 0.7143 0.7119 0.7103 0.7093 0.7067
2940.664238 0.7032 0.7007 0.6987 0.6963 0.6938
2945.019165 0.6927 0.6922 0.6913 0.6903 0.6883
2949.374092 0.6858 0.6827 0.6792 0.6770 0.6755
2953.729019 0.6734 0.6709 0.6690 0.6675 0.6657
2958.083946 0.6637 0.6617 0.6597 0.6567 0.6532
2962.438873 0.6503 0.6479 0.6460 0.6445 0.6417
2966.793800 0.6382 0.6360 0.6345 0.6333 0.6324
2971.148727 0.6297 0.6262 0.6231 0.6201 0.6184
2975.503654 0.6173 0.6163 0.6153 0.6137 0.6117
2979.858581 0.6084 0.6044 0.6027 0.6022 0.5997
2984.213508 0.5962 0.5937 0.5917 0.5900 0.5885
2988.568435 0.5864 0.5839 0.5808 0.5773 0.5741
2992.923362 0.5710 0.5680 0.5650 0.5620 0.5590
2997.278289 0.5564 0.5539 0.5517 0.5497 0.5471
3001.633216 0.5441 0.5385 0.5315 0.5261 0.5216
3005.988143 0.5190 0.5175 0.5157 0.5137 0.5127
3010.343070 0.5122 0.5094 0.5054 0.5030 0.5015
3014.697997 0.4984 0.4944 0.4917 0.4897 0.4877
3019.052924 0.4857 0.4821 0.4776 0.4735 0.4695
3023.407851 0.4655 0.4615 0.4587 0.4567 0.4538
3027.762778 0.4503 0.4480 0.4465 0.4434 0.4394
3032.117705 0.4367 0.4347 0.4315 0.4275 0.4241
3036.472632 0.4211 0.4187 0.4167 0.4147 0.4127
3040.827559 0.4098 0.4063 0.4025 0.3985 0.3942
3045.182486 0.3896 0.3861 0.3831 0.3814 0.3804
3049.537414 0.3781 0.3751 0.3727 0.3707 0.3678
3053.892341 0.3643 0.3614 0.3589 0.3571 0.3556
3058.247268 0.3541 0.3526 0.3505 0.3480 0.3448
3062.602195 0.3413 0.3384 0.3359 0.3337 0.3317
3066.957122 0.3288 0.3253 0.3215 0.3175 0.3117
3071.312049 0.3047 0.2995 0.2955 0.2909 0.2859
3075.666976 0.2828 0.2808 0.2791 0.2776 0.2755
3080.021903 0.2729 0.2695 0.2655 0.2615 0.2575
3084.376830 0.2551 0.2536 0.2518 0.2498 0.2484
3088.731757 0.2474 0.2455 0.2430 0.2399 0.2364
3093.086684 0.2329 0.2294 0.2274 0.2264 0.2251
3097.441611 0.2236 0.2199 0.2149 0.2105 0.2065
3101.796538 0.2035 0.2010 0.1988 0.1968 0.1948
3106.151465 0.1928 0.1911 0.1896 0.1878 0.1858
3110.506392 0.1838 0.1818 0.1792 0.1762 0.1747
3114.861319 0.1742 0.1737 0.1732 0.1712 0.1682
3119.216246 0.1667 0.1662 0.1636 0.1596 0.1559
3123.571173 0.1524 0.1498 0.1478 0.1461 0.1446
3127.926100 0.1431 0.1416 0.1401 0.1386 0.1368
3132.281027 0.1348 0.1322 0.1292 0.1265 0.1240
3136.635954 0.1224 0.1214 0.1192 0.1162 0.1135
3140.990881 0.1110 0.1088 0.1068 0.1042 0.1012
3145.345808 0.0997 0.0992 0.0987 0.0982 0.0974
3149.700735 0.0964 0.0957 0.0952 0.0920 0.0870
3154.055662 0.0838 0.0818 0.0804 0.0794 0.0784
3158.410589 0.0774 0.0758 0.0738 0.0718 0.0698
3162.765516 0.0678 0.0658 0.0647 0.0642 0.0631
3167.120443 0.0616 0.0610 0.0610 0.0598 0.0578
3171.475370 0.0558 0.0538 0.0524 0.0514 0.0504
3175.830297 0.0494 0.0475 0.0450 0.0434 0.0424
3180.185224 0.0414 0.0404 0.0397 0.0392 0.0387
3184.540151 0.0382 0.0371 0.0356 0.0350 0.0350
3188.895078 0.0347 0.0342 0.0334 0.0324 0.0317
3193.250005 0.0312 0.0304 0.0294 0.0287 0.0282
3197.604932 0.0277 0.0272 0.0270 0.0270 0.0264
3201.959859 0.0254 0.0247 0.0242 0.0240 0.0240
3206.314786 0.0237 0.0232 0.0224 0.0214 0.0207
3210.669714 0.0202 0.0197 0.0192 0.0184 0.0174
3215.024641 0.0170 0.0170 0.0170 0.0170 0.0167
3219.379568 0.0162 0.0160 0.0160 0.0160 0.0160
3223.734495 0.0154 0.0144 0.0140 0.0140 0.0137
3228.089422 0.0132 0.0130 0.0130 0.0130 0.0130
3232.444349 0.0127 0.0122 0.0120 0.0120 0.0114
3236.799276 0.0104 0.0100 0.0100 0.0097 0.0092
3241.154203 0.0090 0.0090 0.0090 0.0090 0.0090
3245.509130 0.0090 0.0090 0.0090 0.0090 0.0090
3249.864057 0.0090 0.0090 0.0087 0.0082 0.0080
3254.218984 0.0080 0.0080 0.0080 0.0080 0.0080
3258.573911 0.0080 0.0080 0.0080 0.0080 0.0074
3262.928838 0.0064 0.0060 0.0060 0.0060 0.0060
3267.283765 0.0060 0.0060 0.0060 0.0060 0.0060
3271.638692 0.0060 0.0060 0.0060 0.0060 0.0060
3275.993619 0.0060 0.0060 0.0060 0.0060 0.0060
3280.348546 0.0060 0.0057 0.0052 0.0050 0.0050
3284.703473 0.0050 0.0050 0.0050 0.0050 0.0047
3289.058400 0.0042 0.0040 0.0040 0.0040 0.0040
3293.413327 0.0040 0.0040 0.0035 0.0025 0.0020
3297.768254 0.0020 0.0020 0.0020 0.0017 0.0012
3302.123181 0.0010 0.0010 0.0010 0.0010 0.0010
3306.478108 0.0010 0.0010 0.0010 0.0010 0.0010
3310.833035 0.0010 0.0010 0.0010 0.0010 0.0010
3315.187962 0.0010 0.0010 0.0010 0.0010 0.0010
3319.542889 0.0010 0.0010 0.0010 0.0010 0.0010
3323.897816 0.0010 0.0010 0.0010 0.0010 0.0010
3328.252743 0.0010 0.0010 0.0010 0.0010 0.0010
3332.607670 0.0010 0.0010 0.0010 0.0010 0.0010
3336.962597 0.0010 0.0010 0.0010 0.0010 0.0010
3341.317524 0.0010 0.0010 0.0010 0.0010 0.0010
3345.672451 0.0010 0.0010 0.0010 0.0010 0.0010
3350.027378 0.0010 0.0010 0.0010 0.0010 0.0010
3354.382305 0.0010 0.0010 0.0010 0.0010 0.0010
3358.737232 0.0010 0.0010 0.0010 0.0010 0.0010
3363.092159 0.0010 0.0010 0.0010 0.0010 0.0010
3367.447086 0.0010 0.0010 0.0010 0.0010 0.0010
3371.802014 0.0010 0.0010 0.0010 0.0010 0.0010
3376.156941 0.0010 0.0010 0.0010 0.0010 0.0010
3380.511868 0.0010 0.0010 0.0010 0.0010 0.0010
3384.866795 0.0010 0.0010 0.0010 0.0010 0.0010
3389.221722 0.0010 0.0010 0.0010 0.0010 0.0010
3393.576649 0.0010 0.0010 0.0010 0.0010 0.0010
3397.931576 0.0010 0.0010 0.0010 0.0010 0.0010
3402.286503 0.0010 0.0010 0.0010 0.0010 0.0010
3406.641430 0.0010 0.0010 0.0010 0.0010 0.0010
3410.996357 0.0010 0.0010 0.0010 0.0010 0.0010
3415.351284 0.0010 0.0010 0.0010 0.0010 0.0010
3419.706211 0.0010 0.0010 0.0010 0.0010 0.0010
3424.061138 0.0010 0.0010 0.0010 0.0010 0.0010
3428.416065 0.0010 0.0010 0.0010 0.0010 0.0010
3432.770992 0.0010 0.0010 0.0010 0.0010 0.0010
3437.125919 0.0010 0.0010 0.0010 0.0010 0.0010
3441.480846 0.0010 0.0010 0.0010 0.0010 0.0010
3445.835773 0.0010 0.0012 0.0017 0.0020 0.0020
3450.190700 0.0020 0.0020 0.0020 0.0020 0.0020
3454.545627 0.0020 0.0020 0.0020 0.0020 0.0020
3458.900554 0.0025 0.0035 0.0040 0.0040 0.0040
3463.255481 0.0040 0.0040 0.0040 0.0040 0.0040
3467.610408 0.0040 0.0040 0.0040 0.0040 0.0042
3471.965335 0.0047 0.0050 0.0050 0.0050 0.0050
3476.320262 0.0050 0.0050 0.0050 0.0050 0.0050
3480.675189 0.0050 0.0050 0.0050 0.0050 0.0050
3485.030116 0.0052 0.0057 0.0060 0.0060 0.0060
3489.385043 0.0060 0.0060 0.0060 0.0065 0.0075
3493.739970 0.0080 0.0080 0.0080 0.0080 0.0080
3498.094897 0.0080 0.0082 0.0087 0.0090 0.0090
3502.449824 0.0090 0.0090 0.0090 0.0090 0.0092
3506.804751 0.0097 0.0100 0.0100 0.0100 0.0100
3511.159678 0.0100 0.0100 0.0105 0.0115 0.0120
3515.514605 0.0120 0.0120 0.0120 0.0120 0.0120
3519.869532 0.0120 0.0120 0.0120 0.0120 0.0120
3524.224459 0.0120 0.0122 0.0127 0.0132 0.0137
3528.579386 0.0140 0.0140 0.0145 0.0155 0.0160
3532.934314 0.0160 0.0160 0.0160 0.0162 0.0167
3537.289241 0.0170 0.0170 0.0175 0.0185 0.0190
3541.644168 0.0190 0.0190 0.0190 0.0192 0.0197
3545.999095 0.0200 0.0200 0.0200 0.0200 0.0207
3550.354022 0.0222 0.0232 0.0237 0.0242 0.0247
3554.708949 0.0255 0.0265 0.0275 0.0285 0.0295
3559.063876 0.0304 0.0310 0.0310 0.0312 0.0317
3563.418803 0.0320 0.0320 0.0324 0.0334 0.0340
3567.773730 0.0340 0.0345 0.0355 0.0360 0.0360
3572.128657 0.0364 0.0374 0.0382 0.0387 0.0392
3576.483584 0.0397 0.0404 0.0414 0.0422 0.0427
3580.838511 0.0443 0.0473 0.0492 0.0497 0.0507
3585.193438 0.0522 0.0530 0.0530 0.0532 0.0537
3589.548365 0.0549 0.0569 0.0587 0.0602 0.0612
3593.903292 0.0617 0.0624 0.0634 0.0642 0.0647
3598.258219 0.0652 0.0657 0.0669 0.0689 0.0706
3602.613146 0.0722 0.0739 0.0759 0.0774 0.0784
3606.968073 0.0792 0.0797 0.0807 0.0822 0.0839
3611.323000 0.0859 0.0896 0.0956 0.0996 0.1011
3615.677927 0.1022 0.1027 0.1038 0.1058 0.1078
3620.032854 0.1099 0.1127 0.1167 0.1205 0.1240
3624.387781 0.1266 0.1281 0.1299 0.1319 0.1339
3628.742708 0.1359 0.1385 0.1420 0.1451 0.1476
3633.097635 0.1505 0.1540 0.1577 0.1617 0.1655
3637.452562 0.1690 0.1725 0.1760 0.1791 0.1816
3641.807489 0.1858 0.1923 0.1983 0.2038 0.2089
3646.162416 0.2134 0.2177 0.2217 0.2246 0.2261
3650.517343 0.2307 0.2397 0.2489 0.2584 0.2685
3654.872270 0.2796 0.2879 0.2924 0.2980 0.3049
3659.227197 0.3100 0.3125 0.3192 0.3317 0.3436
3663.582124 0.3545 0.3631 0.3681 0.3747 0.3837
3667.937051 0.3918 0.3988 0.4056 0.4121 0.4199
3672.291978 0.4294 0.4409 0.4548 0.4653 0.4708
3676.646905 0.4781 0.4881 0.4956 0.4996 0.5067
3681.001832 0.5182 0.5353 0.5608 0.5774 0.5809
3685.356759 0.5856 0.5921 0.5988 0.6058 0.6136
3689.711686 0.6227 0.6301 0.6351 0.6423 0.6528
3694.066614 0.6614 0.6674 0.6726 0.6766 0.6810
3698.421541 0.6860 0.6906 0.6946 0.7006 0.7096
3702.776468 0.7182 0.7261 0.7322 0.7352 0.7378
3707.131395 0.7398 0.7428 0.7473 0.7520 0.7570
3711.486322 0.7616 0.7656 0.7696 0.7736 0.7774
3715.841249 0.7809 0.7840 0.7865 0.7886 0.7901
3720.196176 0.7924 0.7959 0.7995 0.8035 0.8066
3724.551103 0.8081 0.8098 0.8118 0.8132 0.8137
3728.906030 0.8146 0.8161 0.8176 0.8191 0.8208
3733.260957 0.8228 0.8250 0.8275 0.8294 0.8304
3737.615884 0.8310 0.8310 0.8314 0.8324 0.8336
3741.970811 0.8351 0.8368 0.8388 0.8406 0.8421
3746.325738 0.8432 0.8437 0.8448 0.8468 0.8486
3750.680665 0.8501 0.8516 0.8531 0.8540 0.8540
3755.035592 0.8542 0.8547 0.8550 0.8550 0.8561
3759.390519 0.8591 0.8614 0.8624 0.8634 0.8644
3763.745446 0.8652 0.8657 0.8660 0.8660 0.8666
3768.100373 0.8681 0.8692 0.8697 0.8702 0.8707
3772.455300 0.8716 0.8731 0.8740 0.8740 0.8746
3776.810227 0.8761 0.8770 0.8770 0.8772 0.8777
3781.165154 0.8784 0.8794 0.8804 0.8814 0.8824
3785.520081 0.8834 0.8842 0.8847 0.8852 0.8857
3789.875008 0.8860 0.8860 0.8860 0.8860 0.8860
3794.229935 0.8860 0.8860 0.8860 0.8858 0.8853
3798.584862 0.8850 0.8850
##END=
