##TITLE=N-HEXANE
##JCAMP-DX=4.24
##DATA TYPE=INFRARED SPECTRUM
##CLASS=COBLENTZ III
##ORIGIN=DOW CHEMICAL COMPANY
##OWNER=COBLENTZ SOCIETY
Collection (C) 2007 copyright by the U.S. Secretary of Commerce
on behalf of the United States of America. All rights reserved.
##DATE=1960/12/29
##NAMES=hexane
##CAS REGISTRY NO=110-54-3
##MOLFORM=C6H14
##SOURCE REFERENCE=COBLENTZ NO. 10118
##$NIST SOURCE=COBLENTZ
##$NIST IMAGE=cob10118
##SPECTROMETER/DATA SYSTEM=DOW KBr FOREPRISM-GRATING
##INSTRUMENT PARAMETERS=BLAZED AT 3.5, 12.0, 20.0 MICRON, CHANGED AT 5.0, 7.5, 14.9 MICRON
##STATE=LIQUID (NEAT)
##PATH LENGTH=0.011 CM
##SAMPLING PROCEDURE=TRANSMISSION
##RESOLUTION=4
##DATA PROCESSING=DIGITIZED BY NIST FROM HARD COPY (FROM TWO SEGMENTS)
##XUNITS=1/CM
##YUNITS=TRANSMITTANCE
##XFACTOR=1.000000
##YFACTOR=1
##DELTAX=0.870513
##FIRSTX=445.267
##LASTX=3768.01
##FIRSTY=1.036
##MAXX=3768.01
##MINX=445.267
##MAXY=1.083
##MINY=0
##NPOINTS=3818
##XYDATA=(X++(Y..Y))
445.267000 1.0360 1.0360 1.0360 1.0350 1.0350
449.619564 1.0340 1.0340 1.0340 1.0340 1.0340
453.972129 1.0340 1.0340 1.0340 1.0340 1.0320
458.324693 1.0320 1.0320 1.0320 1.0320 1.0320
462.677257 1.0320 1.0310 1.0310 1.0310 1.0310
467.029822 1.0310 1.0310 1.0310 1.0310 1.0310
471.382386 1.0310 1.0310 1.0310 1.0310 1.0310
475.734951 1.0310 1.0310 1.0310 1.0310 1.0310
480.087515 1.0310 1.0310 1.0310 1.0310 1.0310
484.440079 1.0310 1.0320 1.0320 1.0340 1.0350
488.792644 1.0360 1.0380 1.0390 1.0400 1.0400
493.145208 1.0400 1.0420 1.0430 1.0430 1.0440
497.497772 1.0440 1.0460 1.0470 1.0470 1.0470
501.850337 1.0490 1.0490 1.0490 1.0490 1.0490
506.202901 1.0490 1.0500 1.0510 1.0530 1.0530
510.555466 1.0510 1.0510 1.0510 1.0510 1.0530
514.908030 1.0530 1.0530 1.0530 1.0540 1.0570
519.260594 1.0570 1.0580 1.0580 1.0590 1.0610
523.613159 1.0610 1.0620 1.0650 1.0650 1.0660
527.965723 1.0680 1.0690 1.0690 1.0690 1.0690
532.318287 1.0700 1.0700 1.0720 1.0730 1.0730
536.670852 1.0740 1.0740 1.0760 1.0760 1.0760
541.023416 1.0760 1.0760 1.0760 1.0760 1.0760
545.375981 1.0760 1.0760 1.0760 1.0760 1.0770
549.728545 1.0790 1.0800 1.0810 1.0810 1.0810
554.081109 1.0830 1.0830 1.0830 1.0830 1.0830
558.433674 1.0830 1.0830 1.0830 1.0830 1.0810
562.786238 1.0810 1.0810 1.0810 1.0810 1.0810
567.138802 1.0810 1.0810 1.0810 1.0810 1.0810
571.491367 1.0810 1.0810 1.0810 1.0810 1.0810
575.843931 1.0810 1.0810 1.0810 1.0810 1.0810
580.196496 1.0810 1.0810 1.0810 1.0810 1.0810
584.549060 1.0810 1.0810 1.0810 1.0810 1.0810
588.901624 1.0810 1.0810 1.0810 1.0810 1.0810
593.254189 1.0800 1.0800 1.0800 1.0800 1.0790
597.606753 1.0770 1.0770 1.0770 1.0770 1.0770
601.959317 1.0770 1.0770 1.0770 1.0770 1.0770
606.311882 1.0770 1.0770 1.0760 1.0760 1.0770
610.664446 1.0770 1.0770 1.0770 1.0770 1.0770
615.017011 1.0760 1.0760 1.0760 1.0760 1.0740
619.369575 1.0740 1.0740 1.0740 1.0740 1.0740
623.722139 1.0740 1.0740 1.0740 1.0740 1.0740
628.074704 1.0740 1.0740 1.0730 1.0700 1.0690
632.427268 1.0680 1.0680 1.0680 1.0680 1.0680
636.779832 1.0680 1.0680 1.0680 1.0660 1.0660
641.132397 1.0680 1.0680 1.0680 1.0680 1.0660
645.484961 1.0660 1.0660 1.0660 1.0660 1.0660
649.837526 1.0660 1.0660 1.0650 1.0650 1.0650
654.190090 1.0650 1.0650 1.0650 1.0640 1.0640
658.542654 1.0640 1.0620 1.0610 1.0610 1.0590
662.895219 1.0590 1.0580 1.0550 1.0540 1.0510
667.247783 1.0420 1.0390 1.0390 1.0400 1.0420
671.600347 1.0460 1.0470 1.0470 1.0500 1.0500
675.952912 1.0500 1.0490 1.0490 1.0460 1.0440
680.305476 1.0420 1.0420 1.0400 1.0380 1.0360
684.658041 1.0340 1.0290 1.0270 1.0250 1.0250
689.010605 1.0210 1.0190 1.0080 1.0020 1.0000
693.363169 0.9970 0.9940 0.9850 0.9820 0.9800
697.715734 0.9780 0.9640 0.9550 0.9370 0.9270
702.068298 0.9140 0.8970 0.8820 0.8631 0.8441
706.420862 0.8240 0.8060 0.7830 0.7580 0.7270
710.773427 0.6891 0.6481 0.6071 0.5532 0.5042
715.125991 0.4679 0.4140 0.3410 0.2600 0.2091
719.478556 0.1521 0.1261 0.1021 0.1000 0.1020
723.831120 0.1040 0.1150 0.1360 0.1560 0.1820
728.183684 0.2159 0.2619 0.3238 0.3848 0.4039
732.536249 0.4410 0.4590 0.4970 0.5270 0.5590
736.888813 0.5989 0.6259 0.6519 0.6829 0.6960
741.241377 0.7090 0.7130 0.7280 0.7380 0.7450
745.593942 0.7610 0.7730 0.7770 0.7770 0.7760
749.946506 0.7720 0.7610 0.7500 0.7390 0.7150
754.299071 0.6811 0.6182 0.5462 0.5281 0.5280
758.651635 0.5440 0.5690 0.6210 0.6859 0.7110
763.004199 0.7579 0.7939 0.8129 0.8289 0.8330
767.356764 0.8350 0.8330 0.8310 0.8290 0.8280
771.709328 0.8280 0.8280 0.8320 0.8370 0.8480
776.061892 0.8610 0.8780 0.8950 0.9070 0.9100
780.414457 0.9100 0.9080 0.9070 0.9040 0.9010
784.767021 0.9000 0.8950 0.8850 0.8740 0.8580
789.119586 0.8400 0.8141 0.7980 0.7840 0.7840
793.472150 0.7870 0.7900 0.7910 0.7920 0.7950
797.824714 0.7950 0.7950 0.7940 0.7920 0.7940
802.177279 0.7980 0.8010 0.8140 0.8280 0.8410
806.529843 0.8560 0.8730 0.8820 0.8950 0.8960
810.882407 0.8960 0.8950 0.8950 0.8930 0.8880
815.234972 0.8850 0.8810 0.8770 0.8730 0.8660
819.587536 0.8580 0.8550 0.8540 0.8540 0.8540
823.940101 0.8550 0.8620 0.8690 0.8810 0.9049
828.292665 0.9200 0.9310 0.9590 0.9720 0.9800
832.645229 1.0020 1.0050 1.0090 1.0120 1.0140
836.997794 1.0160 1.0170 1.0160 1.0160 1.0160
841.350358 1.0160 1.0140 1.0140 1.0140 1.0140
845.702922 1.0130 1.0120 1.0120 1.0120 1.0100
850.055487 1.0080 1.0050 1.0040 1.0010 1.0000
854.408051 0.9970 0.9940 0.9870 0.9830 0.9790
858.760616 0.9700 0.9530 0.9440 0.9330 0.9151
863.113180 0.8960 0.8770 0.8360 0.7970 0.7760
867.465744 0.7680 0.7670 0.7790 0.7790 0.7790
871.818309 0.7770 0.7770 0.7720 0.7680 0.7610
876.170873 0.7560 0.7470 0.7380 0.7201 0.6941
880.523437 0.6548 0.5510 0.5250 0.5250 0.5390
884.876002 0.5650 0.5720 0.5700 0.5680 0.5531
889.228566 0.5530 0.5550 0.5890 0.6330 0.6770
893.581131 0.7150 0.7350 0.7370 0.7350 0.7340
897.933695 0.7200 0.7080 0.6820 0.6670 0.6640
902.286259 0.6620 0.6620 0.6600 0.6620 0.6710
906.638824 0.6880 0.7120 0.7350 0.7520 0.7840
910.991388 0.8139 0.8200 0.8360 0.8549 0.8729
915.343952 0.8920 0.9140 0.9260 0.9380 0.9490
919.696517 0.9610 0.9740 0.9830 0.9910 1.0020
924.049081 1.0060 1.0120 1.0160 1.0190 1.0200
928.401646 1.0210 1.0210 1.0210 1.0230 1.0230
932.754210 1.0230 1.0230 1.0230 1.0210 1.0210
937.106774 1.0200 1.0190 1.0190 1.0170 1.0160
941.459339 1.0160 1.0130 1.0120 1.0100 1.0090
945.811903 1.0080 1.0060 1.0060 1.0060 1.0050
950.164467 1.0050 1.0050 1.0050 1.0040 1.0040
954.517032 1.0040 1.0020 1.0020 1.0010 1.0000
958.869596 0.9980 0.9940 0.9900 0.9850 0.9820
963.222161 0.9710 0.9610 0.9570 0.9450 0.9370
967.574725 0.9250 0.9050 0.8960 0.8860 0.8850
971.927289 0.8860 0.8920 0.8970 0.9110 0.9260
976.279854 0.9450 0.9590 0.9670 0.9700 0.9720
980.632418 0.9740 0.9740 0.9720 0.9710 0.9680
984.984982 0.9650 0.9630 0.9600 0.9530 0.9480
989.337547 0.9410 0.9270 0.9160 0.9120 0.8961
993.690111 0.8880 0.8730 0.8580 0.8400 0.8290
998.042676 0.8220 0.8180 0.8170 0.8160 0.8140
1002.395240 0.8140 0.8130 0.8130 0.8110 0.8100
1006.747804 0.8100 0.8090 0.8070 0.8060 0.8050
1011.100369 0.8020 0.7990 0.7980 0.7980 0.7990
1015.452933 0.8090 0.8180 0.8290 0.8390 0.8549
1019.805497 0.8630 0.8650 0.8660 0.8650 0.8630
1024.158062 0.8610 0.8550 0.8520 0.8440 0.8360
1028.510626 0.8290 0.8200 0.7990 0.7680 0.7600
1032.863191 0.7520 0.7490 0.7470 0.7470 0.7490
1037.215755 0.7500 0.7560 0.7610 0.7760 0.7870
1041.568319 0.8020 0.8130 0.8170 0.8220 0.8240
1045.920884 0.8220 0.8210 0.8200 0.8160 0.8010
1050.273448 0.7880 0.7720 0.7520 0.7171 0.7000
1054.626012 0.6780 0.6530 0.6510 0.6520 0.6550
1058.978577 0.6580 0.6580 0.6550 0.6480 0.6321
1063.331141 0.6150 0.5980 0.5890 0.5890 0.5950
1067.683706 0.6250 0.6549 0.6769 0.7318 0.7868
1072.036270 0.8020 0.8280 0.8510 0.8700 0.8840
1076.388834 0.8950 0.9080 0.9150 0.9200 0.9230
1080.741399 0.9300 0.9410 0.9490 0.9570 0.9600
1085.093963 0.9680 0.9800 0.9870 0.9910 1.0010
1089.446527 1.0040 1.0060 1.0130 1.0140 1.0170
1093.799092 1.0200 1.0240 1.0240 1.0250 1.0250
1098.151656 1.0270 1.0280 1.0280 1.0280 1.0280
1102.504221 1.0290 1.0290 1.0290 1.0280 1.0280
1106.856785 1.0270 1.0270 1.0270 1.0250 1.0240
1111.209349 1.0230 1.0230 1.0200 1.0190 1.0190
1115.561914 1.0170 1.0170 1.0140 1.0130 1.0010
1119.914478 1.0000 0.9980 0.9940 0.9850 0.9800
1124.267042 0.9750 0.9700 0.9560 0.9400 0.9220
1128.619607 0.9100 0.8950 0.8761 0.8551 0.8161
1132.972171 0.7940 0.7640 0.7110 0.6620 0.6480
1137.324736 0.6480 0.6620 0.6849 0.7259 0.7619
1141.677300 0.7950 0.8100 0.8290 0.8510 0.8650
1146.029864 0.8820 0.8960 0.9140 0.9190 0.9339
1150.382429 0.9440 0.9500 0.9570 0.9600 0.9630
1154.734993 0.9710 0.9790 0.9830 0.9910 0.9970
1159.087557 1.0010 1.0010 1.0010 1.0010 1.0000
1163.440122 1.0000 1.0000 1.0000 1.0010 1.0020
1167.792686 1.0040 1.0100 1.0130 1.0190 1.0230
1172.145251 1.0250 1.0250 1.0250 1.0240 1.0240
1176.497815 1.0230 1.0230 1.0240 1.0240 1.0240
1180.850379 1.0250 1.0250 1.0250 1.0250 1.0250
1185.202944 1.0250 1.0240 1.0240 1.0230 1.0230
1189.555508 1.0210 1.0200 1.0190 1.0160 1.0160
1193.908072 1.0140 1.0120 1.0090 1.0090 1.0060
1198.260637 1.0050 1.0050 1.0040 1.0010 0.9980
1202.613201 0.9950 0.9930 0.9910 0.9890 0.9860
1206.965766 0.9850 0.9800 0.9720 0.9650 0.9560
1211.318330 0.9440 0.9340 0.9180 0.9030 0.8930
1215.670894 0.8770 0.8730 0.8690 0.8670 0.8670
1220.023459 0.8660 0.8650 0.8650 0.8660 0.8660
1224.376023 0.8690 0.8760 0.8860 0.8930 0.8960
1228.728587 0.9180 0.9290 0.9340 0.9350 0.9350
1233.081152 0.9350 0.9340 0.9330 0.9310 0.9290
1237.433716 0.9260 0.9200 0.9150 0.9080 0.8990
1241.786281 0.8850 0.8780 0.8710 0.8580 0.8361
1246.138845 0.8170 0.7939 0.7570 0.7260 0.7150
1250.491409 0.7110 0.7170 0.7489 0.7620 0.7949
1254.843974 0.8160 0.8330 0.8540 0.8730 0.8840
1259.196538 0.8920 0.8950 0.8960 0.8960 0.8960
1263.549102 0.8960 0.8950 0.8950 0.8950 0.8950
1267.901667 0.8930 0.8930 0.8880 0.8800 0.8770
1272.254231 0.8740 0.8730 0.8650 0.8610 0.8550
1276.606796 0.8460 0.8390 0.8350 0.8320 0.8160
1280.959360 0.7990 0.7840 0.7770 0.7620 0.7560
1285.311924 0.7460 0.7420 0.7340 0.7260 0.7120
1289.664489 0.7009 0.6590 0.6170 0.6030 0.5880
1294.017053 0.5740 0.5650 0.5640 0.5650 0.5730
1298.369617 0.5871 0.6150 0.6440 0.6620 0.6750
1302.722182 0.6770 0.6750 0.6710 0.6680 0.6630
1307.074746 0.6510 0.6470 0.6440 0.6440 0.6470
1311.427311 0.6680 0.6960 0.7110 0.7270 0.7459
1315.779875 0.7560 0.7600 0.7640 0.7730 0.7790
1320.132439 0.7830 0.7830 0.7840 0.7830 0.7820
1324.485004 0.7800 0.7790 0.7730 0.7720 0.7640
1328.837568 0.7600 0.7530 0.7420 0.7200 0.7001
1333.190132 0.6850 0.6790 0.6730 0.6630 0.6400
1337.542697 0.6150 0.5910 0.5650 0.5211 0.4751
1341.895261 0.4379 0.4000 0.3920 0.3920 0.3970
1346.247826 0.4180 0.4680 0.4780 0.5059 0.5349
1350.600390 0.5620 0.5620 0.5590 0.5570 0.5550
1354.952954 0.5570 0.5590 0.5640 0.5680 0.5690
1359.305519 0.5690 0.5660 0.5640 0.5510 0.5420
1363.658083 0.5270 0.5140 0.4901 0.4641 0.4401
1368.010647 0.4119 0.3740 0.3620 0.3210 0.2720
1372.363212 0.2580 0.2131 0.1711 0.1341 0.1141
1376.715776 0.0919 0.0500 0.0380 0.0250 0.0130
1381.068341 0.0120 0.0120 0.0120 0.0130 0.0130
1385.420905 0.0190 0.0210 0.0421 0.1030 0.1280
1389.773469 0.1560 0.2039 0.2449 0.2819 0.3129
1394.126034 0.3431 0.3690 0.3950 0.4190 0.4420
1398.478598 0.4530 0.4640 0.4870 0.5050 0.5080
1402.831162 0.5170 0.5200 0.5210 0.5210 0.5210
1407.183727 0.5210 0.5200 0.5190 0.5160 0.5140
1411.536291 0.5120 0.5090 0.5040 0.5020 0.5020
1415.888856 0.4970 0.4900 0.4800 0.4710 0.4680
1420.241420 0.4600 0.4500 0.4370 0.4300 0.4260
1424.593984 0.4120 0.4040 0.3920 0.3770 0.3560
1428.946549 0.3400 0.3309 0.3009 0.2640 0.2520
1433.299113 0.2350 0.2170 0.1970 0.1710 0.1451
1437.651677 0.1230 0.1020 0.0940 0.0850 0.0700
1442.004242 0.0570 0.0510 0.0430 0.0390 0.0320
1446.356806 0.0200 0.0170 0.0140 0.0120 0.0090
1450.709371 0.0080 0.0050 0.0050 0.0040 0.0040
1455.061935 0.0040 0.0020 0.0020 0.0020 0.0020
1459.414499 0.0020 0.0020 0.0020 0.0020 0.0020
1463.767064 0.0020 0.0020 0.0020 0.0020 0.0020
1468.119628 0.0020 0.0040 0.0040 0.0040 0.0040
1472.472192 0.0050 0.0050 0.0060 0.0080 0.0090
1476.824757 0.0100 0.0120 0.0140 0.0190 0.0240
1481.177321 0.0340 0.0400 0.0591 0.1020 0.1260
1485.529886 0.1560 0.1740 0.1970 0.2279 0.2539
1489.882450 0.2671 0.2991 0.3290 0.3440 0.3610
1494.235014 0.3740 0.3920 0.4120 0.4290 0.4460
1498.587579 0.4640 0.4781 0.5000 0.5200 0.5310
1502.940143 0.5440 0.5530 0.5620 0.5760 0.5890
1507.292707 0.6040 0.6180 0.6290 0.6400 0.6560
1511.645272 0.6620 0.6700 0.6770 0.6790 0.6880
1515.997836 0.6940 0.6980 0.7070 0.7090 0.7120
1520.350401 0.7190 0.7260 0.7300 0.7310 0.7380
1524.702965 0.7430 0.7490 0.7520 0.7570 0.7610
1529.055529 0.7620 0.7690 0.7760 0.7790 0.7920
1533.408094 0.7950 0.8010 0.8060 0.8090 0.8140
1537.760658 0.8180 0.8200 0.8260 0.8320 0.8360
1542.113222 0.8520 0.8590 0.8620 0.8630 0.8650
1546.465787 0.8660 0.8670 0.8740 0.8760 0.8770
1550.818351 0.8800 0.8840 0.8860 0.8880 0.8890
1555.170916 0.8930 0.8960 0.9070 0.9110 0.9140
1559.523480 0.9150 0.9180 0.9220 0.9230 0.9230
1563.876044 0.9220 0.9220 0.9220 0.9230 0.9270
1568.228609 0.9300 0.9310 0.9340 0.9370 0.9410
1572.581173 0.9440 0.9450 0.9460 0.9480 0.9500
1576.933737 0.9500 0.9530 0.9570 0.9590 0.9600
1581.286302 0.9600 0.9610 0.9610 0.9630 0.9640
1585.638866 0.9650 0.9670 0.9680 0.9680 0.9700
1589.991431 0.9700 0.9700 0.9700 0.9700 0.9700
1594.343995 0.9700 0.9710 0.9710 0.9710 0.9710
1598.696559 0.9710 0.9710 0.9700 0.9700 0.9700
1603.049124 0.9710 0.9710 0.9710 0.9710 0.9710
1607.401688 0.9700 0.9700 0.9700 0.9700 0.9700
1611.754252 0.9700 0.9700 0.9700 0.9700 0.9700
1616.106817 0.9680 0.9680 0.9680 0.9680 0.9680
1620.459381 0.9680 0.9680 0.9710 0.9710 0.9740
1624.811946 0.9740 0.9750 0.9760 0.9760 0.9760
1629.164510 0.9780 0.9780 0.9790 0.9790 0.9800
1633.517074 0.9800 0.9820 0.9820 0.9830 0.9850
1637.869639 0.9850 0.9830 0.9830 0.9850 0.9860
1642.222203 0.9870 0.9870 0.9870 0.9870 0.9890
1646.574767 0.9890 0.9910 0.9940 0.9950 0.9940
1650.927332 0.9940 0.9980 1.0010 1.0010 1.0010
1655.279896 1.0010 1.0010 1.0000 0.9980 0.9980
1659.632461 0.9980 1.0010 1.0010 1.0020 1.0020
1663.985025 1.0040 1.0050 1.0060 1.0060 1.0080
1668.337589 1.0080 1.0080 1.0090 1.0090 1.0090
1672.690154 1.0090 1.0090 1.0090 1.0100 1.0100
1677.042718 1.0100 1.0100 1.0100 1.0100 1.0120
1681.395282 1.0120 1.0120 1.0120 1.0120 1.0120
1685.747847 1.0120 1.0100 1.0100 1.0100 1.0100
1690.100411 1.0100 1.0100 1.0100 1.0100 1.0100
1694.452976 1.0100 1.0100 1.0130 1.0140 1.0160
1698.805540 1.0160 1.0160 1.0200 1.0210 1.0210
1703.158104 1.0210 1.0210 1.0210 1.0240 1.0240
1707.510669 1.0250 1.0280 1.0290 1.0310 1.0320
1711.863233 1.0340 1.0350 1.0360 1.0390 1.0430
1716.215797 1.0440 1.0440 1.0440 1.0490 1.0490
1720.568362 1.0490 1.0490 1.0490 1.0490 1.0490
1724.920926 1.0490 1.0490 1.0490 1.0490 1.0500
1729.273491 1.0500 1.0500 1.0510 1.0510 1.0510
1733.626055 1.0530 1.0540 1.0540 1.0530 1.0530
1737.978619 1.0510 1.0510 1.0510 1.0530 1.0550
1742.331184 1.0550 1.0580 1.0580 1.0610 1.0650
1746.683748 1.0660 1.0660 1.0680 1.0680 1.0660
1751.036312 1.0660 1.0660 1.0660 1.0660 1.0650
1755.388877 1.0650 1.0650 1.0650 1.0650 1.0650
1759.741441 1.0640 1.0620 1.0620 1.0620 1.0620
1764.094006 1.0610 1.0610 1.0590 1.0590 1.0580
1768.446570 1.0580 1.0570 1.0550 1.0550 1.0550
1772.799134 1.0550 1.0550 1.0550 1.0540 1.0540
1777.151699 1.0540 1.0540 1.0540 1.0540 1.0540
1781.504263 1.0580 1.0580 1.0610 1.0620 1.0640
1785.856827 1.0650 1.0660 1.0660 1.0660 1.0660
1790.209392 1.0660 1.0660 1.0660 1.0660 1.0660
1794.561956 1.0660 1.0660 1.0660 1.0660 1.0680
1798.914521 1.0680 1.0690 1.0690 1.0700 1.0700
1803.267085 1.0700 1.0700 1.0700 1.0700 1.0700
1807.619649 1.0700 1.0700 1.0700 1.0700 1.0700
1811.972214 1.0700 1.0700 1.0700 1.0700 1.0700
1816.324778 1.0700 1.0700 1.0700 1.0700 1.0700
1820.677342 1.0700 1.0700 1.0700 1.0700 1.0700
1825.029907 1.0720 1.0700 1.0700 1.0720 1.0720
1829.382471 1.0730 1.0730 1.0730 1.0720 1.0720
1833.735036 1.0720 1.0720 1.0720 1.0720 1.0720
1838.087600 1.0720 1.0720 1.0730 1.0730 1.0730
1842.440164 1.0730 1.0730 1.0730 1.0730 1.0720
1846.792729 1.0700 1.0700 1.0700 1.0720 1.0720
1851.145293 1.0700 1.0700 1.0700 1.0700 1.0700
1855.497857 1.0700 1.0700 1.0700 1.0700 1.0700
1859.850422 1.0690 1.0690 1.0700 1.0700 1.0700
1864.202986 1.0700 1.0700 1.0700 1.0720 1.0720
1868.555551 1.0700 1.0700 1.0720 1.0700 1.0700
1872.908115 1.0700 1.0700 1.0690 1.0680 1.0660
1877.260679 1.0650 1.0640 1.0640 1.0620 1.0590
1881.613244 1.0570 1.0570 1.0550 1.0540 1.0510
1885.965808 1.0500 1.0500 1.0490 1.0490 1.0490
1890.318372 1.0470 1.0470 1.0470 1.0470 1.0470
1894.670937 1.0470 1.0470 1.0470 1.0490 1.0490
1899.023501 1.0500 1.0510 1.0540 1.0610 1.0620
1903.376065 1.0620 1.0650 1.0680 1.0690 1.0690
1907.728630 1.0690 1.0690 1.0690 1.0690 1.0690
1912.081194 1.0690 1.0690 1.0690 1.0690 1.0690
1916.433759 1.0690 1.0690 1.0690 1.0690 1.0690
1920.786323 1.0690 1.0690 1.0690 1.0690 1.0690
1925.138887 1.0690 1.0690 1.0690 1.0690 1.0690
1929.491452 1.0690 1.0690 1.0690 1.0690 1.0690
1933.844016 1.0690 1.0680 1.0680 1.0680 1.0680
1938.196580 1.0660 1.0660 1.0660 1.0660 1.0660
1942.549145 1.0660 1.0660 1.0660 1.0660 1.0660
1946.901709 1.0660 1.0660 1.0660 1.0660 1.0660
1951.254274 1.0660 1.0660 1.0660 1.0660 1.0660
1955.606838 1.0650 1.0640 1.0610 1.0540 1.0430
1959.959402 1.0431 1.0571 1.0730 1.0730 1.0730
1964.311967 1.0740 1.0740 1.0740 1.0740 1.0760
1968.664531 1.0760 1.0760 1.0760 1.0760 1.0760
1973.017095 1.0760 1.0760 1.0760 1.0760 1.0760
1977.369660 1.0770 1.0770 1.0770 1.0760 1.0770
1981.722224 1.0790 1.0800 1.0800 1.0800 1.0800
1986.074789 1.0800 1.0800 1.0800 1.0790 1.0760
1990.427353 1.0760 1.0740 1.0740 1.0740 1.0740
1994.779917 1.0730 1.0730 1.0730 1.0730 1.0730
1999.132482 1.0730 1.0700 1.0680 1.0660 1.0655
2003.485046 1.0650 1.0645 1.0640 1.0630 1.0620
2007.837610 1.0620 1.0620 1.0600 1.0580 1.0575
2012.190175 1.0570 1.0540 1.0510 1.0500 1.0490
2016.542739 1.0465 1.0440 1.0430 1.0420 1.0390
2020.895304 1.0360 1.0315 1.0270 1.0235 1.0200
2025.247868 1.0195 1.0190 1.0190 1.0190 1.0195
2029.600432 1.0200 1.0205 1.0210 1.0260 1.0310
2033.952997 1.0350 1.0390 1.0410 1.0430 1.0430
2038.305561 1.0430 1.0435 1.0440 1.0440 1.0440
2042.658125 1.0435 1.0430 1.0430 1.0430 1.0430
2047.010690 1.0430 1.0430 1.0430 1.0435 1.0440
2051.363254 1.0465 1.0490 1.0490 1.0490 1.0480
2055.715819 1.0470 1.0470 1.0470 1.0480 1.0490
2060.068383 1.0530 1.0570 1.0590 1.0610 1.0610
2064.420947 1.0610 1.0615 1.0620 1.0620 1.0620
2068.773512 1.0620 1.0620 1.0620 1.0620 1.0620
2073.126076 1.0620 1.0620 1.0620 1.0620 1.0620
2077.478640 1.0620 1.0620 1.0620 1.0620 1.0620
2081.831205 1.0620 1.0620 1.0620 1.0620 1.0620
2086.183769 1.0620 1.0620 1.0615 1.0610 1.0610
2090.536334 1.0610 1.0600 1.0590 1.0590 1.0590
2094.888898 1.0590 1.0590 1.0590 1.0590 1.0590
2099.241462 1.0590 1.0590 1.0590 1.0585 1.0580
2103.594027 1.0565 1.0550 1.0550 1.0550 1.0540
2107.946591 1.0530 1.0530 1.0530 1.0530 1.0530
2112.299155 1.0520 1.0510 1.0510 1.0510 1.0510
2116.651720 1.0510 1.0510 1.0510 1.0505 1.0500
2121.004284 1.0495 1.0490 1.0490 1.0490 1.0475
2125.356849 1.0460 1.0460 1.0460 1.0460 1.0460
2129.709413 1.0450 1.0440 1.0440 1.0440 1.0430
2134.061977 1.0420 1.0405 1.0390 1.0385 1.0380
2138.414542 1.0380 1.0380 1.0370 1.0360 1.0355
2142.767106 1.0350 1.0350 1.0350 1.0345 1.0340
2147.119670 1.0330 1.0320 1.0320 1.0320 1.0305
2151.472235 1.0290 1.0290 1.0290 1.0285 1.0280
2155.824799 1.0275 1.0270 1.0260 1.0250 1.0245
2160.177364 1.0240 1.0240 1.0240 1.0240 1.0240
2164.529928 1.0240 1.0240 1.0240 1.0240 1.0235
2168.882492 1.0230 1.0220 1.0210 1.0200 1.0190
2173.235057 1.0180 1.0170 1.0170 1.0170 1.0170
2177.587621 1.0170 1.0170 1.0170 1.0170 1.0170
2181.940185 1.0170 1.0170 1.0180 1.0190 1.0190
2186.292750 1.0190 1.0190 1.0190 1.0195 1.0200
2190.645314 1.0205 1.0210 1.0210 1.0210 1.0210
2194.997879 1.0210 1.0210 1.0210 1.0210 1.0210
2199.350443 1.0220 1.0230 1.0230 1.0230 1.0230
2203.703007 1.0230 1.0235 1.0240 1.0240 1.0240
2208.055572 1.0245 1.0250 1.0260 1.0270 1.0275
2212.408136 1.0280 1.0280 1.0280 1.0280 1.0280
2216.760700 1.0280 1.0280 1.0280 1.0280 1.0280
2221.113265 1.0280 1.0280 1.0280 1.0280 1.0280
2225.465829 1.0280 1.0280 1.0280 1.0280 1.0280
2229.818394 1.0280 1.0280 1.0280 1.0275 1.0270
2234.170958 1.0270 1.0270 1.0260 1.0250 1.0250
2238.523522 1.0250 1.0250 1.0250 1.0245 1.0240
2242.876087 1.0235 1.0230 1.0220 1.0210 1.0210
2247.228651 1.0210 1.0210 1.0210 1.0210 1.0210
2251.581215 1.0210 1.0210 1.0210 1.0210 1.0210
2255.933780 1.0210 1.0210 1.0210 1.0210 1.0210
2260.286344 1.0220 1.0230 1.0230 1.0230 1.0230
2264.638909 1.0230 1.0230 1.0230 1.0230 1.0230
2268.991473 1.0235 1.0240 1.0240 1.0240 1.0235
2273.344037 1.0230 1.0230 1.0230 1.0230 1.0230
2277.696602 1.0230 1.0230 1.0235 1.0240 1.0245
2282.049166 1.0250 1.0260 1.0270 1.0275 1.0280
2286.401730 1.0285 1.0290 1.0290 1.0290 1.0290
2290.754295 1.0290 1.0300 1.0310 1.0310 1.0310
2295.106859 1.0300 1.0290 1.0290 1.0290 1.0285
2299.459424 1.0280 1.0275 1.0269 1.0254 1.0239
2303.811988 1.0219 1.0200 1.0195 1.0190 1.0175
2308.164552 1.0159 1.0129 1.0100 1.0090 1.0080
2312.517117 1.0070 1.0060 1.0055 1.0050 1.0050
2316.869681 1.0050 1.0050 1.0050 1.0045 1.0040
2321.222245 1.0040 1.0040 1.0040 1.0040 1.0030
2325.574810 1.0020 1.0020 1.0020 1.0020 1.0020
2329.927374 1.0015 1.0010 1.0010 1.0010 1.0010
2334.279939 1.0010 1.0005 0.9999 0.9984 0.9970
2338.632503 0.9960 0.9950 0.9945 0.9940 0.9935
2342.985067 0.9929 0.9909 0.9889 0.9854 0.9819
2347.337632 0.9804 0.9788 0.9743 0.9698 0.9669
2351.690196 0.9639 0.9624 0.9610 0.9610 0.9610
2356.042760 0.9620 0.9630 0.9635 0.9640 0.9645
2360.395325 0.9650 0.9660 0.9670 0.9675 0.9681
2364.747889 0.9696 0.9711 0.9731 0.9750 0.9755
2369.100454 0.9760 0.9760 0.9760 0.9760 0.9760
2373.453018 0.9750 0.9740 0.9730 0.9720 0.9715
2377.805582 0.9710 0.9705 0.9700 0.9705 0.9710
2382.158147 0.9715 0.9722 0.9757 0.9790 0.9795
2386.510711 0.9801 0.9826 0.9851 0.9871 0.9891
2390.863275 0.9911 0.9931 0.9951 0.9971 0.9996
2395.215840 1.0020 1.0030 1.0040 1.0040 1.0040
2399.568404 1.0040 1.0039 1.0029 1.0020 1.0020
2403.920969 1.0020 1.0015 1.0009 0.9994 0.9979
2408.273533 0.9959 0.9940 0.9935 0.9930 0.9920
2412.626097 0.9910 0.9910 0.9910 0.9910 0.9910
2416.978662 0.9921 0.9930 0.9930 0.9933 0.9978
2421.331226 1.0021 1.0041 1.0061 1.0071 1.0081
2425.683790 1.0091 1.0100 1.0111 1.0120 1.0125
2430.036355 1.0130 1.0130 1.0130 1.0135 1.0140
2434.388919 1.0140 1.0141 1.0151 1.0160 1.0160
2438.741484 1.0160 1.0165 1.0171 1.0181 1.0190
2443.094048 1.0195 1.0200 1.0200 1.0200 1.0200
2447.446612 1.0200 1.0200 1.0200 1.0200 1.0200
2451.799177 1.0200 1.0200 1.0200 1.0200 1.0200
2456.151741 1.0200 1.0195 1.0190 1.0190 1.0190
2460.504305 1.0190 1.0190 1.0190 1.0189 1.0179
2464.856870 1.0170 1.0170 1.0170 1.0165 1.0160
2469.209434 1.0149 1.0140 1.0140 1.0140 1.0140
2473.561999 1.0140 1.0140 1.0140 1.0140 1.0140
2477.914563 1.0140 1.0140 1.0140 1.0140 1.0135
2482.267127 1.0130 1.0125 1.0119 1.0109 1.0100
2486.619692 1.0089 1.0079 1.0064 1.0049 1.0034
2490.972256 1.0020 1.0015 1.0010 1.0005 1.0000
2495.324820 1.0000 0.9999 0.9984 0.9969 0.9959
2499.677385 0.9950 0.9950 0.9950 0.9950 0.9950
2504.029949 0.9950 0.9950 0.9950 0.9950 0.9950
2508.382514 0.9950 0.9945 0.9940 0.9940 0.9940
2512.735078 0.9940 0.9940 0.9940 0.9940 0.9940
2517.087642 0.9940 0.9940 0.9940 0.9935 0.9929
2521.440207 0.9919 0.9910 0.9905 0.9899 0.9884
2525.792771 0.9870 0.9865 0.9860 0.9855 0.9850
2530.145335 0.9850 0.9849 0.9834 0.9819 0.9809
2534.497900 0.9800 0.9795 0.9789 0.9769 0.9750
2538.850464 0.9745 0.9739 0.9724 0.9709 0.9694
2543.203029 0.9680 0.9675 0.9670 0.9670 0.9670
2547.555593 0.9670 0.9669 0.9659 0.9650 0.9650
2551.908157 0.9650 0.9645 0.9640 0.9640 0.9640
2556.260722 0.9640 0.9640 0.9635 0.9629 0.9619
2560.613286 0.9608 0.9588 0.9570 0.9565 0.9560
2564.965850 0.9555 0.9547 0.9512 0.9476 0.9421
2569.318415 0.9368 0.9333 0.9295 0.9215 0.9134
2573.670979 0.9038 0.8943 0.8858 0.8775 0.8710
2578.023544 0.8645 0.8580 0.8512 0.8407 0.8303
2582.376108 0.8218 0.8140 0.8135 0.8130 0.8130
2586.728672 0.8129 0.8119 0.8110 0.8110 0.8110
2591.081237 0.8110 0.8110 0.8105 0.8098 0.8078
2595.433801 0.8059 0.8044 0.8029 0.8019 0.8002
2599.786365 0.7907 0.7816 0.7772 0.7727 0.7687
2604.138930 0.7649 0.7629 0.7610 0.7605 0.7600
2608.491494 0.7605 0.7610 0.7615 0.7621 0.7636
2612.844059 0.7653 0.7688 0.7723 0.7758 0.7791
2617.196623 0.7806 0.7820 0.7825 0.7830 0.7835
2621.549187 0.7840 0.7840 0.7840 0.7840 0.7840
2625.901752 0.7835 0.7830 0.7825 0.7820 0.7820
2630.254316 0.7819 0.7809 0.7799 0.7784 0.7770
2634.606880 0.7765 0.7760 0.7760 0.7758 0.7733
2638.959445 0.7708 0.7678 0.7645 0.7580 0.7512
2643.312009 0.7411 0.7316 0.7276 0.7237 0.7202
2647.664574 0.7170 0.7170 0.7168 0.7143 0.7118
2652.017138 0.7098 0.7080 0.7080 0.7080 0.7075
2656.369702 0.7070 0.7070 0.7067 0.7032 0.6996
2660.722267 0.6940 0.6885 0.6830 0.6774 0.6714
2665.074831 0.6655 0.6600 0.6547 0.6517 0.6485
2669.427395 0.6430 0.6368 0.6228 0.6100 0.6100
2673.779960 0.6101 0.6116 0.6131 0.6141 0.6154
2678.132524 0.6205 0.6255 0.6310 0.6366 0.6426
2682.485089 0.6486 0.6546 0.6605 0.6655 0.6703
2686.837653 0.6738 0.6772 0.6792 0.6815 0.6870
2691.190217 0.6928 0.7023 0.7120 0.7240 0.7354
2695.542782 0.7405 0.7454 0.7489 0.7520 0.7520
2699.895346 0.7518 0.7493 0.7466 0.7421 0.7379
2704.247910 0.7364 0.7348 0.7328 0.7308 0.7283
2708.600475 0.7257 0.7227 0.7192 0.7097 0.6999
2712.953039 0.6868 0.6739 0.6629 0.6525 0.6480
2717.305604 0.6433 0.6363 0.6295 0.6240 0.6185
2721.658168 0.6130 0.6075 0.6025 0.5972 0.5882
2726.010732 0.5789 0.5675 0.5555 0.5390 0.5205
2730.363297 0.4812 0.4454 0.4399 0.4350 0.4350
2734.715861 0.4353 0.4383 0.4416 0.4476 0.4545
2739.068425 0.4695 0.4841 0.4956 0.5069 0.5164
2743.420990 0.5264 0.5409 0.5545 0.5600 0.5655
2747.773554 0.5711 0.5767 0.5827 0.5888 0.5957
2752.126119 0.6021 0.6026 0.6030 0.6030 0.6030
2756.478683 0.6030 0.6030 0.6025 0.6019 0.6009
2760.831247 0.6000 0.5995 0.5990 0.5985 0.5978
2765.183812 0.5958 0.5937 0.5907 0.5879 0.5874
2769.536376 0.5865 0.5815 0.5766 0.5731 0.5690
2773.888940 0.5590 0.5495 0.5445 0.5395 0.5351
2778.241505 0.5304 0.5244 0.5180 0.5075 0.4970
2782.594069 0.4869 0.4765 0.4635 0.4508 0.4403
2786.946634 0.4297 0.4182 0.4072 0.3997 0.3923
2791.299198 0.3858 0.3790 0.3701 0.3612 0.3537
2795.651762 0.3464 0.3404 0.3337 0.3213 0.3087
2800.004327 0.2956 0.2825 0.2695 0.2569 0.2474
2804.356891 0.2383 0.2323 0.2262 0.2192 0.2121
2808.709455 0.2041 0.1956 0.1821 0.1688 0.1573
2813.062020 0.1455 0.1310 0.1176 0.1141 0.1106
2817.414584 0.1071 0.1035 0.0995 0.0951 0.0876
2821.767149 0.0803 0.0743 0.0682 0.0607 0.0534
2826.119713 0.0484 0.0437 0.0412 0.0386 0.0351
2830.472277 0.0316 0.0276 0.0232 0.0152 0.0078
2834.824842 0.0063 0.0047 0.0022 0.0000 0.0000
2839.177406 0.0000 0.0000 0.0000 0.0000 0.0000
2843.529970 0.0000 0.0000 0.0000 0.0000 0.0000
2847.882535 0.0000 0.0000 0.0000 0.0000 0.0000
2852.235099 0.0000 0.0000 0.0000 0.0000 0.0000
2856.587664 0.0000 0.0000 0.0000 0.0000 0.0000
2860.940228 0.0000 0.0000 0.0000 0.0000 0.0000
2865.292792 0.0000 0.0000 0.0000 0.0000 0.0000
2869.645357 0.0000 0.0000 0.0000 0.0000 0.0000
2873.997921 0.0000 0.0000 0.0000 0.0000 0.0000
2878.350485 0.0000 0.0000 0.0000 0.0000 0.0000
2882.703050 0.0000 0.0000 0.0000 0.0000 0.0000
2887.055614 0.0000 0.0000 0.0000 0.0000 0.0000
2891.408179 0.0000 0.0000 0.0000 0.0000 0.0000
2895.760743 0.0000 0.0000 0.0000 0.0000 0.0000
2900.113307 0.0000 0.0000 0.0000 0.0000 0.0000
2904.465872 0.0000 0.0000 0.0000 0.0000 0.0000
2908.818436 0.0000 0.0000 0.0000 0.0000 0.0000
2913.171000 0.0000 0.0000 0.0000 0.0000 0.0000
2917.523565 0.0000 0.0000 0.0000 0.0000 0.0000
2921.876129 0.0000 0.0000 0.0000 0.0000 0.0000
2926.228694 0.0000 0.0000 0.0000 0.0000 0.0000
2930.581258 0.0000 0.0000 0.0000 0.0000 0.0000
2934.933822 0.0000 0.0000 0.0000 0.0000 0.0000
2939.286387 0.0000 0.0000 0.0000 0.0000 0.0000
2943.638951 0.0000 0.0000 0.0000 0.0000 0.0000
2947.991515 0.0000 0.0000 0.0000 0.0000 0.0000
2952.344080 0.0000 0.0000 0.0000 0.0000 0.0000
2956.696644 0.0000 0.0000 0.0000 0.0000 0.0000
2961.049209 0.0000 0.0000 0.0000 0.0000 0.0000
2965.401773 0.0000 0.0000 0.0000 0.0000 0.0000
2969.754337 0.0000 0.0000 0.0001 0.0006 0.0010
2974.106902 0.0010 0.0010 0.0010 0.0010 0.0010
2978.459466 0.0010 0.0010 0.0011 0.0016 0.0020
2982.812030 0.0020 0.0020 0.0020 0.0020 0.0020
2987.164595 0.0020 0.0020 0.0021 0.0031 0.0043
2991.517159 0.0063 0.0083 0.0103 0.0121 0.0131
2995.869724 0.0144 0.0174 0.0203 0.0223 0.0247
3000.222288 0.0302 0.0368 0.0503 0.0631 0.0716
3004.574852 0.0793 0.0813 0.0848 0.0988 0.1124
3008.927417 0.1229 0.1337 0.1452 0.1567 0.1681
3013.279981 0.1796 0.1911 0.2023 0.2118 0.2210
3017.632545 0.2280 0.2358 0.2488 0.2614 0.2713
3021.985110 0.2812 0.2902 0.2990 0.3065 0.3139
3026.337674 0.3204 0.3270 0.3335 0.3402 0.3487
3030.690239 0.3570 0.3640 0.3709 0.3769 0.3828
3035.042803 0.3883 0.3940 0.4010 0.4079 0.4144
3039.395367 0.4207 0.4262 0.4319 0.4389 0.4460
3043.747932 0.4536 0.4607 0.4657 0.4703 0.4723
3048.100496 0.4751 0.4826 0.4902 0.4987 0.5072
3052.453060 0.5157 0.5241 0.5316 0.5383 0.5408
3056.805625 0.5435 0.5470 0.5506 0.5551 0.5594
3061.158189 0.5624 0.5659 0.5719 0.5778 0.5833
3065.510754 0.5886 0.5926 0.5968 0.6023 0.6079
3069.863318 0.6139 0.6199 0.6264 0.6329 0.6388
3074.215882 0.6446 0.6491 0.6538 0.6593 0.6650
3078.568447 0.6720 0.6789 0.6843 0.6898 0.6953
3082.921011 0.7009 0.7069 0.7123 0.7143 0.7166
3087.273575 0.7206 0.7242 0.7257 0.7275 0.7310
3091.626140 0.7345 0.7380 0.7414 0.7439 0.7466
3095.978704 0.7506 0.7543 0.7563 0.7583 0.7603
3100.331269 0.7625 0.7660 0.7696 0.7736 0.7775
3104.683833 0.7804 0.7830 0.7830 0.7831 0.7836
3109.036397 0.7842 0.7857 0.7872 0.7887 0.7901
3113.388962 0.7912 0.7922 0.7932 0.7941 0.7946
3117.741526 0.7952 0.7962 0.7972 0.7982 0.7995
3122.094090 0.8025 0.8050 0.8050 0.8052 0.8061
3126.446655 0.8071 0.8081 0.8091 0.8101 0.8111
3130.799219 0.8122 0.8131 0.8136 0.8142 0.8152
3135.151784 0.8162 0.8172 0.8180 0.8180 0.8182
3139.504348 0.8192 0.8201 0.8206 0.8210 0.8210
3143.856912 0.8211 0.8216 0.8220 0.8220 0.8220
3148.209477 0.8220 0.8220 0.8220 0.8219 0.8214
3152.562041 0.8210 0.8210 0.8210 0.8210 0.8210
3156.914605 0.8210 0.8209 0.8204 0.8200 0.8200
3161.267170 0.8200 0.8200 0.8198 0.8188 0.8180
3165.619734 0.8180 0.8179 0.8174 0.8170 0.8170
3169.972299 0.8169 0.8164 0.8160 0.8160 0.8160
3174.324863 0.8160 0.8158 0.8148 0.8140 0.8140
3178.677427 0.8140 0.8140 0.8140 0.8140 0.8139
3183.029992 0.8134 0.8130 0.8130 0.8130 0.8130
3187.382556 0.8131 0.8136 0.8140 0.8140 0.8140
3191.735120 0.8140 0.8142 0.8152 0.8163 0.8183
3196.087685 0.8202 0.8212 0.8222 0.8237 0.8255
3200.440249 0.8291 0.8326 0.8361 0.8396 0.8431
3204.792814 0.8463 0.8483 0.8505 0.8535 0.8569
3209.145378 0.8624 0.8679 0.8734 0.8783 0.8803
3213.497942 0.8828 0.8878 0.8926 0.8961 0.8994
3217.850507 0.9019 0.9046 0.9081 0.9120 0.9174
3222.203071 0.9231 0.9296 0.9352 0.9362 0.9376
3226.555635 0.9411 0.9445 0.9475 0.9502 0.9517
3230.908200 0.9536 0.9571 0.9606 0.9646 0.9682
3235.260764 0.9698 0.9714 0.9739 0.9762 0.9772
3239.613329 0.9782 0.9792 0.9804 0.9829 0.9852
3243.965893 0.9862 0.9872 0.9882 0.9890 0.9890
3248.318457 0.9891 0.9896 0.9901 0.9906 0.9912
3252.671022 0.9928 0.9941 0.9946 0.9950 0.9950
3257.023586 0.9950 0.9950 0.9950 0.9950 0.9950
3261.376150 0.9950 0.9950 0.9950 0.9954 0.9979
3265.728715 1.0001 1.0006 1.0014 1.0039 1.0063
3270.081279 1.0078 1.0093 1.0108 1.0121 1.0126
3274.433844 1.0130 1.0130 1.0130 1.0130 1.0131
3278.786408 1.0136 1.0143 1.0158 1.0170 1.0170
3283.138972 1.0172 1.0182 1.0191 1.0196 1.0200
3287.491537 1.0200 1.0200 1.0200 1.0201 1.0206
3291.844101 1.0210 1.0210 1.0210 1.0210 1.0212
3296.196665 1.0222 1.0230 1.0230 1.0230 1.0230
3300.549230 1.0230 1.0230 1.0230 1.0230 1.0230
3304.901794 1.0230 1.0230 1.0230 1.0230 1.0230
3309.254359 1.0230 1.0230 1.0230 1.0230 1.0230
3313.606923 1.0230 1.0228 1.0218 1.0210 1.0210
3317.959487 1.0210 1.0210 1.0210 1.0210 1.0210
3322.312052 1.0210 1.0210 1.0210 1.0210 1.0210
3326.664616 1.0210 1.0210 1.0210 1.0210 1.0210
3331.017180 1.0210 1.0209 1.0204 1.0199 1.0194
3335.369745 1.0190 1.0190 1.0190 1.0190 1.0188
3339.722309 1.0178 1.0167 1.0152 1.0140 1.0140
3344.074873 1.0139 1.0134 1.0129 1.0124 1.0118
3348.427438 1.0108 1.0099 1.0094 1.0089 1.0084
3352.780002 1.0080 1.0080 1.0080 1.0080 1.0080
3357.132567 1.0080 1.0078 1.0068 1.0060 1.0060
3361.485131 1.0060 1.0060 1.0062 1.0072 1.0080
3365.837695 1.0080 1.0080 1.0080 1.0080 1.0080
3370.190260 1.0081 1.0086 1.0090 1.0090 1.0091
3374.542824 1.0096 1.0100 1.0100 1.0102 1.0112
3378.895388 1.0120 1.0120 1.0122 1.0132 1.0140
3383.247953 1.0140 1.0142 1.0152 1.0160 1.0160
3387.600517 1.0160 1.0160 1.0161 1.0166 1.0172
3391.953082 1.0182 1.0191 1.0196 1.0201 1.0206
3396.305646 1.0210 1.0210 1.0210 1.0210 1.0210
3400.658210 1.0210 1.0210 1.0210 1.0210 1.0210
3405.010775 1.0210 1.0210 1.0210 1.0210 1.0210
3409.363339 1.0210 1.0210 1.0210 1.0210 1.0210
3413.715903 1.0210 1.0210 1.0210 1.0210 1.0210
3418.068468 1.0210 1.0210 1.0210 1.0210 1.0210
3422.421032 1.0212 1.0222 1.0230 1.0230 1.0231
3426.773597 1.0236 1.0240 1.0240 1.0241 1.0246
3431.126161 1.0253 1.0268 1.0281 1.0286 1.0293
3435.478725 1.0308 1.0322 1.0332 1.0342 1.0352
3439.831290 1.0366 1.0396 1.0421 1.0426 1.0430
3444.183854 1.0430 1.0431 1.0436 1.0440 1.0440
3448.536418 1.0440 1.0440 1.0442 1.0452 1.0461
3452.888983 1.0466 1.0470 1.0470 1.0472 1.0482
3457.241547 1.0491 1.0496 1.0501 1.0506 1.0513
3461.594112 1.0528 1.0541 1.0546 1.0552 1.0562
3465.946676 1.0570 1.0570 1.0571 1.0576 1.0580
3470.299240 1.0580 1.0580 1.0580 1.0580 1.0580
3474.651805 1.0580 1.0580 1.0580 1.0580 1.0580
3479.004369 1.0580 1.0580 1.0580 1.0580 1.0580
3483.356933 1.0580 1.0580 1.0581 1.0586 1.0589
3487.709498 1.0584 1.0580 1.0580 1.0580 1.0580
3492.062062 1.0580 1.0580 1.0580 1.0580 1.0581
3496.414627 1.0586 1.0589 1.0584 1.0580 1.0580
3500.767191 1.0580 1.0580 1.0580 1.0580 1.0580
3505.119755 1.0580 1.0580 1.0580 1.0580 1.0580
3509.472320 1.0580 1.0580 1.0580 1.0580 1.0580
3513.824884 1.0580 1.0580 1.0580 1.0580 1.0580
3518.177448 1.0580 1.0580 1.0580 1.0580 1.0580
3522.530013 1.0580 1.0580 1.0580 1.0580 1.0580
3526.882577 1.0579 1.0574 1.0571 1.0576 1.0580
3531.235142 1.0580 1.0579 1.0574 1.0570 1.0570
3535.587706 1.0570 1.0570 1.0570 1.0570 1.0568
3539.940270 1.0558 1.0550 1.0550 1.0550 1.0550
3544.292835 1.0550 1.0550 1.0550 1.0550 1.0550
3548.645399 1.0550 1.0550 1.0550 1.0549 1.0544
3552.997963 1.0539 1.0534 1.0528 1.0518 1.0509
3557.350528 1.0504 1.0500 1.0500 1.0500 1.0500
3561.703092 1.0500 1.0500 1.0499 1.0494 1.0490
3566.055657 1.0490 1.0488 1.0478 1.0470 1.0470
3570.408221 1.0470 1.0470 1.0470 1.0470 1.0469
3574.760785 1.0464 1.0460 1.0460 1.0458 1.0448
3579.113350 1.0440 1.0440 1.0439 1.0434 1.0429
3583.465914 1.0424 1.0418 1.0408 1.0400 1.0400
3587.818478 1.0399 1.0394 1.0387 1.0372 1.0358
3592.171043 1.0348 1.0335 1.0310 1.0290 1.0290
3596.523607 1.0289 1.0284 1.0279 1.0274 1.0259
3600.876172 1.0209 1.0162 1.0127 1.0100 1.0100
3605.228736 1.0100 1.0100 1.0099 1.0094 1.0090
3609.581300 1.0090 1.0090 1.0090 1.0090 1.0090
3613.933865 1.0090 1.0090 1.0090 1.0090 1.0090
3618.286429 1.0090 1.0090 1.0090 1.0090 1.0090
3622.638993 1.0090 1.0090 1.0090 1.0090 1.0090
3626.991558 1.0090 1.0090 1.0090 1.0090 1.0090
3631.344122 1.0090 1.0090 1.0089 1.0084 1.0080
3635.696687 1.0080 1.0080 1.0080 1.0080 1.0080
3640.049251 1.0080 1.0080 1.0080 1.0080 1.0080
3644.401815 1.0080 1.0080 1.0080 1.0080 1.0080
3648.754380 1.0080 1.0080 1.0080 1.0080 1.0078
3653.106944 1.0068 1.0060 1.0060 1.0062 1.0072
3657.459508 1.0080 1.0080 1.0080 1.0080 1.0080
3661.812073 1.0080 1.0080 1.0080 1.0081 1.0086
3666.164637 1.0090 1.0090 1.0090 1.0090 1.0091
3670.517202 1.0096 1.0100 1.0100 1.0100 1.0100
3674.869766 1.0102 1.0112 1.0120 1.0120 1.0121
3679.222330 1.0126 1.0131 1.0136 1.0140 1.0140
3683.574895 1.0142 1.0152 1.0161 1.0166 1.0172
3687.927459 1.0182 1.0190 1.0190 1.0190 1.0190
3692.280023 1.0190 1.0190 1.0190 1.0190 1.0190
3696.632588 1.0190 1.0190 1.0190 1.0190 1.0190
3700.985152 1.0190 1.0190 1.0190 1.0190 1.0191
3705.337717 1.0196 1.0201 1.0206 1.0210 1.0210
3709.690281 1.0212 1.0222 1.0230 1.0230 1.0231
3714.042845 1.0236 1.0241 1.0246 1.0255 1.0275
3718.395410 1.0290 1.0290 1.0285 1.0265 1.0248
3722.747974 1.0238 1.0228 1.0217 1.0209 1.0204
3727.100538 1.0192 1.0156 1.0124 1.0099 1.0076
3731.453103 1.0061 1.0049 1.0044 1.0038 1.0028
3735.805667 1.0019 1.0014 1.0010 1.0010 1.0010
3740.158232 1.0010 1.0010 1.0010 1.0009 1.0004
3744.510796 0.9998 0.9988 0.9980 0.9980 0.9980
3748.863360 0.9980 0.9980 0.9980 0.9980 0.9980
3753.215925 0.9980 0.9980 0.9980 0.9980 0.9980
3757.568489 0.9980 0.9979 0.9974 0.9970 0.9970
3761.921053 0.9970 0.9970 0.9970 0.9970 0.9970
3766.273618 0.9970 0.9970 0.9970
##END=
