##TITLE=CARBON DIOXIDE
##JCAMP-DX=4.24
##DATA TYPE=INFRARED SPECTRUM
##CLASS=COBLENTZ
##ORIGIN=DOW CHEMICAL COMPANY
##OWNER=COBLENTZ SOCIETY
Collection (C) 2007 copyright by the U.S. Secretary of Commerce
on behalf of the United States of America. All rights reserved.
##DATE=1964
##NAMES=dioxomethane
##CAS REGISTRY NO=124-38-9
##MOLFORM=CO2
##SOURCE REFERENCE=COBLENTZ NO. 8753
##$NIST SOURCE=COBLENTZ
##$NIST IMAGE=cob8753
##SPECTROMETER/DATA SYSTEM=DOW KBr FOREPRISM
##INSTRUMENT PARAMETERS=GRATING CHANGED AT 5.0, 7.5, 15.0 MICRON
##STATE=GAS (200 mmHg DILUTED TO A TOTAL PRESSURE OF 600 mmHg WITH N2)
##PATH LENGTH=10 CM
##SAMPLING PROCEDURE=TRANSMISSION
##RESOLUTION=4
##DATA PROCESSING=DIGITIZED BY NIST FROM HARD COPY (FROM TWO SEGMENTS)
##XUNITS=1/CM
##YUNITS=TRANSMITTANCE
##XFACTOR=1.000000
##YFACTOR=1
##DELTAX=0.934582
##FIRSTX=458.879
##LASTX=3797.21
##FIRSTY=0.973
##MAXX=3797.21
##MINX=458.879
##MAXY=1.023
##MINY=0.018
##NPOINTS=3573
##XYDATA=(X++(Y..Y))
458.879000 0.9730 0.9730 0.9720 0.9720 0.9720
463.551912 0.9720 0.9730 0.9730 0.9730 0.9730
468.224824 0.9750 0.9750 0.9760 0.9760 0.9780
472.897735 0.9780 0.9780 0.9790 0.9790 0.9790
477.570647 0.9790 0.9790 0.9780 0.9780 0.9760
482.243559 0.9760 0.9750 0.9750 0.9750 0.9750
486.916471 0.9750 0.9750 0.9750 0.9750 0.9750
491.589383 0.9750 0.9750 0.9750 0.9730 0.9730
496.262295 0.9730 0.9730 0.9730 0.9730 0.9710
500.935206 0.9710 0.9710 0.9690 0.9690 0.9690
505.608118 0.9690 0.9680 0.9660 0.9660 0.9660
510.281030 0.9650 0.9630 0.9630 0.9630 0.9620
514.953942 0.9620 0.9620 0.9620 0.9630 0.9630
519.626854 0.9650 0.9650 0.9660 0.9660 0.9660
524.299766 0.9660 0.9660 0.9660 0.9650 0.9650
528.972677 0.9650 0.9650 0.9650 0.9650 0.9650
533.645589 0.9650 0.9650 0.9650 0.9650 0.9650
538.318501 0.9650 0.9660 0.9660 0.9660 0.9650
542.991413 0.9650 0.9650 0.9630 0.9630 0.9630
547.664325 0.9620 0.9620 0.9620 0.9620 0.9620
552.337236 0.9620 0.9630 0.9630 0.9650 0.9650
557.010148 0.9660 0.9660 0.9680 0.9690 0.9690
561.683060 0.9710 0.9710 0.9720 0.9720 0.9730
566.355972 0.9730 0.9730 0.9730 0.9750 0.9750
571.028884 0.9750 0.9750 0.9760 0.9760 0.9760
575.701796 0.9780 0.9780 0.9780 0.9780 0.9760
580.374707 0.9760 0.9750 0.9750 0.9730 0.9730
585.047619 0.9730 0.9730 0.9720 0.9710 0.9690
589.720531 0.9690 0.9680 0.9650 0.9630 0.9620
594.393443 0.9600 0.9590 0.9580 0.9560 0.9470
599.066355 0.9290 0.9080 0.9080 0.9290 0.9420
603.739266 0.9400 0.9390 0.9360 0.9340 0.9340
608.412178 0.9330 0.9320 0.9330 0.9340 0.9360
613.085090 0.9360 0.9360 0.9390 0.9420 0.9450
617.758002 0.9430 0.9288 0.4711 0.4650 0.5749
622.430914 0.9443 0.9470 0.9470 0.9261 0.9141
627.103826 0.9030 0.8850 0.8740 0.8560 0.8380
631.776737 0.8061 0.7781 0.7631 0.7441 0.7231
636.449649 0.7020 0.6800 0.6570 0.6340 0.6120
641.122561 0.5891 0.5671 0.5401 0.5340 0.5181
645.795473 0.5080 0.4979 0.4460 0.4010 0.3520
650.468385 0.3031 0.3030 0.3608 0.3550 0.3490
655.141297 0.3450 0.3420 0.3430 0.3480 0.3490
659.814208 0.3560 0.3620 0.3680 0.3750 0.3780
664.487120 0.3850 0.4200 0.4660 0.4630 0.1993
669.160032 0.1341 0.0692 0.1797 0.2737 0.2939
673.832944 0.2990 0.2940 0.2900 0.2860 0.2810
678.505856 0.2800 0.2800 0.2810 0.2900 0.2990
683.178767 0.3060 0.3150 0.3230 0.3260 0.3350
687.851679 0.3430 0.3540 0.3670 0.3799 0.3949
692.524591 0.4110 0.4290 0.4450 0.4620 0.4790
697.197503 0.4950 0.5100 0.5359 0.5490 0.5819
701.870415 0.6110 0.6310 0.6630 0.6800 0.6970
706.543327 0.7130 0.7389 0.7520 0.7610 0.7829
711.216238 0.8090 0.8330 0.8490 0.8560 0.8690
715.889150 0.8770 0.8900 0.9109 0.9210 0.9300
720.562062 0.8149 0.7099 0.5790 0.3332 0.3330
725.234974 0.9578 0.9580 0.9550 0.9460 0.9430
729.907886 0.9390 0.9360 0.9330 0.9320 0.9300
734.580797 0.9290 0.9290 0.9270 0.9270 0.9260
739.253709 0.9260 0.9260 0.9240 0.9230 0.9210
743.926621 0.9230 0.9370 0.9460 0.9580 0.9600
748.599533 0.9630 0.9650 0.9680 0.9690 0.9730
753.272445 0.9760 0.9780 0.9790 0.9810 0.9820
757.945357 0.9820 0.9840 0.9840 0.9850 0.9860
762.618268 0.9860 0.9880 0.9890 0.9890 0.9890
767.291180 0.9890 0.9890 0.9890 0.9890 0.9890
771.964092 0.9910 0.9910 0.9910 0.9910 0.9910
776.637004 0.9910 0.9910 0.9910 0.9910 0.9920
781.309916 0.9920 0.9910 0.9910 0.9890 0.9890
785.982828 0.9890 0.9890 0.9890 0.9890 0.9890
790.655739 0.9890 0.9890 0.9890 0.9890 0.9890
795.328651 0.9890 0.9890 0.9890 0.9890 0.9880
800.001563 0.9880 0.9860 0.9860 0.9860 0.9860
804.674475 0.9880 0.9880 0.9880 0.9880 0.9880
809.347387 0.9890 0.9890 0.9890 0.9890 0.9890
814.020298 0.9890 0.9910 0.9910 0.9910 0.9910
818.693210 0.9910 0.9910 0.9910 0.9910 0.9910
823.366122 0.9910 0.9910 0.9910 0.9910 0.9920
828.039034 0.9920 0.9920 0.9920 0.9910 0.9910
832.711946 0.9910 0.9920 0.9920 0.9920 0.9920
837.384858 0.9920 0.9920 0.9920 0.9920 0.9940
842.057769 0.9940 0.9940 0.9940 0.9940 0.9940
846.730681 0.9940 0.9940 0.9940 0.9940 0.9950
851.403593 0.9950 0.9940 0.9940 0.9940 0.9940
856.076505 0.9940 0.9940 0.9940 0.9950 0.9940
860.749417 0.9940 0.9940 0.9940 0.9940 0.9940
865.422328 0.9940 0.9940 0.9950 0.9950 0.9950
870.095240 0.9950 0.9950 0.9950 0.9950 0.9950
874.768152 0.9950 0.9950 0.9950 0.9950 0.9950
879.441064 0.9950 0.9950 0.9950 0.9950 0.9950
884.113976 0.9970 0.9970 0.9950 0.9950 0.9950
888.786888 0.9950 0.9950 0.9940 0.9940 0.9940
893.459799 0.9950 0.9950 0.9950 0.9950 0.9950
898.132711 0.9970 0.9950 0.9950 0.9950 0.9950
902.805623 0.9950 0.9950 0.9950 0.9970 0.9970
907.478535 0.9970 0.9980 0.9980 0.9980 1.0000
912.151447 1.0000 1.0010 1.0010 1.0010 1.0010
916.824359 1.0010 1.0010 1.0010 1.0010 1.0020
921.497270 1.0020 1.0020 1.0020 1.0020 1.0020
926.170182 1.0020 1.0020 1.0040 1.0040 1.0040
930.843094 1.0040 1.0040 1.0040 1.0040 1.0040
935.516006 1.0040 1.0040 1.0050 1.0050 1.0050
940.188918 1.0050 1.0050 1.0050 1.0050 1.0050
944.861829 1.0050 1.0050 1.0050 1.0050 1.0050
949.534741 1.0050 1.0050 1.0050 1.0050 1.0050
954.207653 1.0050 1.0050 1.0050 1.0050 1.0050
958.880565 1.0050 1.0050 1.0050 1.0050 1.0050
963.553477 1.0050 1.0050 1.0050 1.0070 1.0070
968.226389 1.0070 1.0070 1.0070 1.0070 1.0070
972.899300 1.0070 1.0070 1.0070 1.0070 1.0080
977.572212 1.0080 1.0070 1.0070 1.0070 1.0070
982.245124 1.0070 1.0070 1.0070 1.0070 1.0070
986.918036 1.0070 1.0070 1.0070 1.0080 1.0080
991.590948 1.0080 1.0080 1.0100 1.0100 1.0100
996.263860 1.0100 1.0080 1.0080 1.0080 1.0080
1000.936771 1.0080 1.0070 1.0070 1.0050 1.0050
1005.609683 1.0040 1.0040 1.0040 1.0050 1.0070
1010.282595 1.0080 1.0080 1.0100 1.0100 1.0100
1014.955507 1.0100 1.0110 1.0110 1.0110 1.0130
1019.628419 1.0130 1.0140 1.0140 1.0140 1.0140
1024.301330 1.0140 1.0140 1.0140 1.0140 1.0140
1028.974242 1.0140 1.0150 1.0150 1.0150 1.0150
1033.647154 1.0150 1.0150 1.0150 1.0150 1.0150
1038.320066 1.0150 1.0140 1.0140 1.0130 1.0130
1042.992978 1.0110 1.0110 1.0110 1.0110 1.0140
1047.665890 1.0150 1.0150 1.0140 1.0050 1.0020
1052.338801 1.0040 1.0140 1.0150 1.0150 1.0130
1057.011713 1.0130 1.0130 1.0140 1.0140 1.0140
1061.684625 1.0130 1.0130 1.0130 1.0130 1.0110
1066.357537 1.0110 1.0110 1.0100 1.0080 1.0050
1071.030449 1.0050 1.0040 1.0040 1.0040 1.0040
1075.703360 1.0040 1.0050 1.0050 1.0080 1.0080
1080.376272 1.0100 1.0110 1.0110 1.0110 1.0130
1085.049184 1.0130 1.0130 1.0140 1.0140 1.0140
1089.722096 1.0140 1.0140 1.0140 1.0150 1.0150
1094.395008 1.0150 1.0150 1.0150 1.0170 1.0170
1099.067920 1.0170 1.0170 1.0170 1.0170 1.0170
1103.740831 1.0170 1.0170 1.0170 1.0170 1.0170
1108.413743 1.0170 1.0170 1.0170 1.0170 1.0170
1113.086655 1.0180 1.0180 1.0180 1.0180 1.0180
1117.759567 1.0180 1.0180 1.0180 1.0180 1.0180
1122.432479 1.0180 1.0180 1.0180 1.0180 1.0180
1127.105391 1.0170 1.0170 1.0170 1.0170 1.0150
1131.778302 1.0140 1.0140 1.0140 1.0130 1.0130
1136.451214 1.0130 1.0130 1.0110 1.0110 1.0110
1141.124126 1.0110 1.0110 1.0130 1.0130 1.0140
1145.797038 1.0140 1.0150 1.0150 1.0150 1.0150
1150.469950 1.0170 1.0170 1.0180 1.0180 1.0180
1155.142861 1.0180 1.0180 1.0180 1.0180 1.0180
1159.815773 1.0180 1.0180 1.0180 1.0180 1.0180
1164.488685 1.0180 1.0180 1.0180 1.0180 1.0180
1169.161597 1.0180 1.0180 1.0180 1.0180 1.0180
1173.834509 1.0170 1.0150 1.0140 1.0140 1.0130
1178.507421 1.0110 1.0100 1.0100 1.0110 1.0140
1183.180332 1.0170 1.0170 1.0180 1.0180 1.0200
1187.853244 1.0200 1.0200 1.0210 1.0210 1.0230
1192.526156 1.0230 1.0230 1.0230 1.0230 1.0230
1197.199068 1.0230 1.0230 1.0230 1.0230 1.0230
1201.871980 1.0230 1.0230 1.0230 1.0230 1.0230
1206.544891 1.0230 1.0230 1.0230 1.0230 1.0230
1211.217803 1.0230 1.0230 1.0230 1.0230 1.0230
1215.890715 1.0230 1.0230 1.0230 1.0230 1.0230
1220.563627 1.0210 1.0210 1.0210 1.0210 1.0200
1225.236539 1.0200 1.0200 1.0200 1.0200 1.0200
1229.909451 1.0200 1.0210 1.0200 1.0200 1.0180
1234.582362 1.0180 1.0170 1.0150 1.0150 1.0140
1239.255274 1.0130 1.0100 1.0100 1.0080 1.0080
1243.928186 1.0080 1.0070 1.0070 1.0050 1.0050
1248.601098 1.0050 1.0040 1.0040 1.0020 1.0020
1253.274010 1.0010 1.0010 1.0010 1.0010 1.0010
1257.946922 1.0010 1.0010 1.0010 1.0010 1.0000
1262.619833 1.0000 1.0000 1.0000 1.0000 1.0000
1267.292745 1.0000 1.0000 1.0000 1.0000 1.0000
1271.965657 0.9980 0.9980 0.9980 0.9980 0.9980
1276.638569 0.9980 0.9980 0.9980 0.9980 0.9970
1281.311481 0.9970 0.9970 0.9970 0.9970 0.9970
1285.984392 0.9970 0.9970 0.9970 0.9950 0.9950
1290.657304 0.9940 0.9940 0.9940 0.9940 0.9940
1295.330216 0.9940 0.9940 0.9940 0.9940 0.9940
1300.003128 0.9940 0.9940 0.9940 0.9940 0.9940
1304.676040 0.9950 0.9950 0.9950 0.9950 0.9950
1309.348952 0.9950 0.9950 0.9950 0.9950 0.9950
1314.021863 0.9940 0.9940 0.9940 0.9920 0.9940
1318.694775 0.9940 0.9940 0.9940 0.9940 0.9940
1323.367687 0.9940 0.9950 0.9950 0.9950 0.9950
1328.040599 0.9950 0.9950 0.9950 0.9950 0.9950
1332.713511 0.9950 0.9950 0.9950 0.9950 0.9950
1337.386422 0.9950 0.9950 0.9950 0.9950 0.9950
1342.059334 0.9950 0.9950 0.9950 0.9950 0.9970
1346.732246 0.9970 0.9950 0.9950 0.9940 0.9940
1351.405158 0.9920 0.9910 0.9890 0.9880 0.9860
1356.078070 0.9860 0.9850 0.9850 0.9840 0.9840
1360.750982 0.9840 0.9840 0.9850 0.9850 0.9850
1365.423893 0.9850 0.9860 0.9860 0.9850 0.9840
1370.096805 0.9820 0.9820 0.9820 0.9810 0.9810
1374.769717 0.9790 0.9790 0.9790 0.9790 0.9780
1379.442629 0.9730 0.9660 0.9630 0.9620 0.9600
1384.115541 0.9620 0.9620 0.9630 0.9660 0.9690
1388.788453 0.9730 0.9790 0.9850 0.9890 0.9890
1393.461364 0.9910 0.9910 0.9920 0.9920 0.9940
1398.134276 0.9950 0.9950 0.9950 0.9950 0.9950
1402.807188 0.9950 0.9950 0.9950 0.9940 0.9950
1407.480100 0.9950 0.9950 0.9950 0.9950 0.9950
1412.153012 0.9950 0.9970 0.9970 0.9970 0.9980
1416.825923 0.9980 0.9970 0.9970 0.9950 0.9950
1421.498835 0.9950 0.9950 0.9950 0.9950 0.9950
1426.171747 0.9950 0.9950 0.9950 0.9950 0.9970
1430.844659 0.9970 0.9940 0.9940 0.9920 0.9920
1435.517571 0.9920 0.9910 0.9910 0.9920 0.9920
1440.190483 0.9920 0.9920 0.9920 0.9920 0.9920
1444.863394 0.9920 0.9920 0.9920 0.9920 0.9920
1449.536306 0.9920 0.9910 0.9910 0.9910 0.9890
1454.209218 0.9890 0.9880 0.9880 0.9880 0.9860
1458.882130 0.9860 0.9860 0.9880 0.9880 0.9890
1463.555042 0.9890 0.9890 0.9890 0.9890 0.9910
1468.227954 0.9910 0.9910 0.9910 0.9910 0.9910
1472.900865 0.9910 0.9910 0.9910 0.9910 0.9920
1477.573777 0.9910 0.9890 0.9890 0.9880 0.9860
1482.246689 0.9860 0.9860 0.9860 0.9860 0.9860
1486.919601 0.9860 0.9860 0.9880 0.9880 0.9890
1491.592513 0.9880 0.9880 0.9880 0.9880 0.9880
1496.265424 0.9880 0.9890 0.9890 0.9890 0.9880
1500.938336 0.9880 0.9880 0.9880 0.9880 0.9880
1505.611248 0.9880 0.9880 0.9890 0.9890 0.9890
1510.284160 0.9910 0.9890 0.9890 0.9890 0.9880
1514.957072 0.9880 0.9880 0.9880 0.9880 0.9880
1519.629984 0.9860 0.9860 0.9850 0.9860 0.9860
1524.302895 0.9860 0.9860 0.9860 0.9880 0.9880
1528.975807 0.9880 0.9880 0.9890 0.9890 0.9890
1533.648719 0.9890 0.9890 0.9880 0.9880 0.9880
1538.321631 0.9880 0.9860 0.9860 0.9860 0.9880
1542.994543 0.9860 0.9860 0.9860 0.9860 0.9880
1547.667454 0.9880 0.9880 0.9880 0.9890 0.9910
1552.340366 0.9910 0.9910 0.9910 0.9890 0.9880
1557.013278 0.9880 0.9880 0.9880 0.9880 0.9880
1561.686190 0.9880 0.9890 0.9880 0.9880 0.9880
1566.359102 0.9890 0.9890 0.9890 0.9890 0.9890
1571.032014 0.9880 0.9880 0.9880 0.9860 0.9860
1575.704925 0.9880 0.9860 0.9860 0.9860 0.9860
1580.377837 0.9860 0.9860 0.9860 0.9880 0.9880
1585.050749 0.9880 0.9890 0.9890 0.9910 0.9890
1589.723661 0.9890 0.9890 0.9890 0.9910 0.9890
1594.396573 0.9890 0.9890 0.9890 0.9890 0.9890
1599.069485 0.9890 0.9890 0.9890 0.9890 0.9880
1603.742396 0.9880 0.9890 0.9890 0.9890 0.9890
1608.415308 0.9890 0.9890 0.9890 0.9890 0.9880
1613.088220 0.9880 0.9880 0.9890 0.9890 0.9890
1617.761132 0.9890 0.9890 0.9890 0.9880 0.9860
1622.434044 0.9860 0.9880 0.9880 0.9890 0.9910
1627.106955 0.9910 0.9910 0.9910 0.9920 0.9910
1631.779867 0.9910 0.9910 0.9910 0.9920 0.9920
1636.452779 0.9940 0.9940 0.9940 0.9940 0.9950
1641.125691 0.9970 0.9970 0.9970 0.9980 0.9980
1645.798603 0.9980 0.9970 0.9970 0.9950 0.9950
1650.471515 0.9950 0.9940 0.9920 0.9920 0.9920
1655.144426 0.9920 0.9910 0.9890 0.9890 0.9890
1659.817338 0.9890 0.9890 0.9890 0.9890 0.9890
1664.490250 0.9890 0.9890 0.9890 0.9890 0.9880
1669.163162 0.9880 0.9880 0.9880 0.9880 0.9880
1673.836074 0.9880 0.9880 0.9890 0.9890 0.9880
1678.508985 0.9880 0.9860 0.9860 0.9910 0.9920
1683.181897 0.9920 0.9920 0.9920 0.9910 0.9910
1687.854809 0.9890 0.9890 0.9880 0.9860 0.9860
1692.527721 0.9860 0.9860 0.9860 0.9860 0.9860
1697.200633 0.9850 0.9850 0.9850 0.9850 0.9850
1701.873545 0.9850 0.9850 0.9850 0.9850 0.9850
1706.546456 0.9850 0.9850 0.9850 0.9860 0.9860
1711.219368 0.9880 0.9880 0.9860 0.9860 0.9860
1715.892280 0.9860 0.9860 0.9850 0.9850 0.9850
1720.565192 0.9850 0.9850 0.9840 0.9840 0.9840
1725.238104 0.9840 0.9840 0.9840 0.9840 0.9840
1729.911016 0.9840 0.9840 0.9840 0.9850 0.9850
1734.583927 0.9860 0.9860 0.9860 0.9860 0.9860
1739.256839 0.9860 0.9860 0.9850 0.9850 0.9850
1743.929751 0.9840 0.9850 0.9850 0.9850 0.9850
1748.602663 0.9850 0.9850 0.9850 0.9850 0.9850
1753.275575 0.9850 0.9850 0.9850 0.9850 0.9850
1757.948486 0.9850 0.9850 0.9850 0.9850 0.9850
1762.621398 0.9850 0.9850 0.9850 0.9850 0.9860
1767.294310 0.9860 0.9860 0.9860 0.9860 0.9860
1771.967222 0.9860 0.9860 0.9860 0.9860 0.9860
1776.640134 0.9860 0.9860 0.9860 0.9860 0.9860
1781.313046 0.9850 0.9860 0.9860 0.9860 0.9860
1785.985957 0.9860 0.9860 0.9860 0.9860 0.9860
1790.658869 0.9860 0.9860 0.9860 0.9860 0.9860
1795.331781 0.9860 0.9860 0.9860 0.9860 0.9860
1800.004693 0.9860 0.9860 0.9860 0.9860 0.9860
1804.677605 0.9860 0.9880 0.9880 0.9880 0.9880
1809.350516 0.9880 0.9880 0.9880 0.9880 0.9880
1814.023428 0.9880 0.9880 0.9880 0.9880 0.9880
1818.696340 0.9880 0.9880 0.9880 0.9880 0.9880
1823.369252 0.9880 0.9880 0.9880 0.9880 0.9880
1828.042164 0.9880 0.9880 0.9880 0.9880 0.9880
1832.715076 0.9880 0.9880 0.9880 0.9880 0.9880
1837.387987 0.9880 0.9880 0.9880 0.9880 0.9880
1842.060899 0.9880 0.9880 0.9880 0.9880 0.9880
1846.733811 0.9880 0.9880 0.9880 0.9880 0.9880
1851.406723 0.9880 0.9880 0.9880 0.9880 0.9880
1856.079635 0.9880 0.9880 0.9880 0.9880 0.9880
1860.752547 0.9880 0.9880 0.9880 0.9880 0.9880
1865.425458 0.9860 0.9860 0.9860 0.9860 0.9860
1870.098370 0.9860 0.9860 0.9860 0.9860 0.9860
1874.771282 0.9860 0.9860 0.9860 0.9860 0.9860
1879.444194 0.9860 0.9860 0.9860 0.9860 0.9860
1884.117106 0.9860 0.9860 0.9860 0.9860 0.9860
1888.790017 0.9860 0.9860 0.9860 0.9860 0.9860
1893.462929 0.9860 0.9860 0.9860 0.9860 0.9860
1898.135841 0.9860 0.9860 0.9860 0.9860 0.9860
1902.808753 0.9860 0.9860 0.9880 0.9880 0.9880
1907.481665 0.9860 0.9860 0.9860 0.9860 0.9860
1912.154577 0.9860 0.9860 0.9860 0.9860 0.9860
1916.827488 0.9860 0.9860 0.9860 0.9880 0.9880
1921.500400 0.9880 0.9880 0.9880 0.9880 0.9880
1926.173312 0.9880 0.9880 0.9880 0.9880 0.9880
1930.846224 0.9880 0.9880 0.9880 0.9880 0.9880
1935.519136 0.9880 0.9880 0.9860 0.9860 0.9860
1940.192047 0.9860 0.9860 0.9850 0.9840 0.9840
1944.864959 0.9840 0.9840 0.9840 0.9840 0.9850
1949.537871 0.9850 0.9850 0.9850 0.9850 0.9840
1954.210783 0.9820 0.9790 0.9780 0.9780 0.9790
1958.883695 0.9840 0.9860 0.9880 0.9880 0.9860
1963.556607 0.9880 0.9880 0.9890 0.9890 0.9890
1968.229518 0.9890 0.9890 0.9880 0.9890 0.9890
1972.902430 0.9890 0.9890 0.9890 0.9910 0.9910
1977.575342 0.9890 0.9890 0.9890 0.9890 0.9890
1982.248254 0.9890 0.9890 0.9890 0.9890 0.9890
1986.921166 0.9890 0.9890 0.9890 0.9890 0.9890
1991.594078 0.9890 0.9890 0.9890 0.9890 0.9890
1996.266989 0.9890 0.9890 0.9890 0.9890 0.9890
2000.939901 0.9890 0.9890 0.9890 0.9890 0.9890
2005.612813 0.9890 0.9890 0.9890 0.9890 0.9890
2010.285725 0.9890 0.9890 0.9890 0.9890 0.9890
2014.958637 0.9890 0.9890 0.9890 0.9890 0.9890
2019.631548 0.9890 0.9890 0.9890 0.9890 0.9890
2024.304460 0.9890 0.9890 0.9890 0.9890 0.9890
2028.977372 0.9890 0.9890 0.9890 0.9890 0.9886
2033.650284 0.9881 0.9880 0.9880 0.9880 0.9880
2038.323196 0.9880 0.9880 0.9880 0.9880 0.9873
2042.996108 0.9863 0.9860 0.9860 0.9860 0.9860
2047.669019 0.9860 0.9860 0.9860 0.9860 0.9860
2052.341931 0.9860 0.9857 0.9852 0.9850 0.9850
2057.014843 0.9850 0.9850 0.9850 0.9850 0.9853
2061.687755 0.9858 0.9860 0.9860 0.9860 0.9860
2066.360667 0.9860 0.9860 0.9868 0.9883 0.9890
2071.033579 0.9890 0.9887 0.9882 0.9880 0.9880
2075.706490 0.9875 0.9865 0.9860 0.9860 0.9851
2080.379402 0.9831 0.9818 0.9813 0.9817 0.9832
2085.052314 0.9844 0.9854 0.9864 0.9874 0.9880
2089.725226 0.9880 0.9880 0.9880 0.9880 0.9880
2094.398138 0.9882 0.9887 0.9890 0.9890 0.9893
2099.071049 0.9903 0.9910 0.9910 0.9910 0.9910
2103.743961 0.9910 0.9910 0.9910 0.9910 0.9910
2108.416873 0.9910 0.9907 0.9897 0.9890 0.9890
2113.089785 0.9890 0.9890 0.9890 0.9890 0.9892
2117.762697 0.9902 0.9910 0.9910 0.9908 0.9898
2122.435609 0.9890 0.9890 0.9890 0.9890 0.9890
2127.108520 0.9890 0.9890 0.9890 0.9890 0.9890
2131.781432 0.9890 0.9890 0.9890 0.9890 0.9890
2136.454344 0.9890 0.9890 0.9890 0.9891 0.9901
2141.127256 0.9910 0.9910 0.9910 0.9910 0.9910
2145.800168 0.9910 0.9910 0.9910 0.9910 0.9910
2150.473079 0.9910 0.9910 0.9910 0.9910 0.9910
2155.145991 0.9910 0.9910 0.9910 0.9910 0.9910
2159.818903 0.9910 0.9910 0.9910 0.9910 0.9910
2164.491815 0.9914 0.9919 0.9920 0.9920 0.9920
2169.164727 0.9920 0.9920 0.9920 0.9920 0.9920
2173.837639 0.9920 0.9920 0.9920 0.9920 0.9928
2178.510550 0.9938 0.9940 0.9940 0.9940 0.9940
2183.183462 0.9940 0.9940 0.9940 0.9940 0.9940
2187.856374 0.9940 0.9940 0.9940 0.9940 0.9940
2192.529286 0.9940 0.9940 0.9940 0.9940 0.9940
2197.202198 0.9940 0.9933 0.9923 0.9920 0.9920
2201.875110 0.9920 0.9920 0.9917 0.9912 0.9910
2206.548021 0.9910 0.9910 0.9910 0.9910 0.9910
2211.220933 0.9904 0.9894 0.9890 0.9890 0.9890
2215.893845 0.9890 0.9890 0.9890 0.9887 0.9882
2220.566757 0.9875 0.9865 0.9860 0.9860 0.9858
2225.239669 0.9853 0.9848 0.9843 0.9833 0.9818
2229.912580 0.9805 0.9795 0.9788 0.9783 0.9773
2234.585492 0.9759 0.9746 0.9736 0.9716 0.9681
2239.258404 0.9634 0.9570 0.9522 0.9503 0.9479
2243.931316 0.9449 0.9406 0.9341 0.9260 0.9151
2248.604228 0.8982 0.8699 0.8472 0.8358 0.8280
2253.277140 0.8280 0.8346 0.8565 0.8716 0.8701
2257.950051 0.8516 0.7881 0.7378 0.7254 0.7185
2262.622963 0.7285 0.7396 0.7540 0.7644 0.7619
2267.295875 0.7539 0.7266 0.7040 0.6990 0.6942
2271.968787 0.6903 0.6864 0.6829 0.6795 0.6765
2276.641699 0.6735 0.6700 0.6666 0.6636 0.6610
2281.314610 0.6610 0.6626 0.6755 0.6885 0.7024
2285.987522 0.7163 0.7297 0.7388 0.7001 0.6586
2290.660434 0.5772 0.4980 0.4598 0.4244 0.4616
2295.333346 0.4989 0.5361 0.5722 0.4724 0.3726
2300.006258 0.2563 0.1400 0.1385 0.1370 0.1850
2304.679170 0.2336 0.2350 0.2350 0.1813 0.1252
2309.352081 0.1084 0.0940 0.0792 0.0643 0.0530
2314.024993 0.0421 0.0365 0.0316 0.0266 0.0216
2318.697905 0.0206 0.0201 0.0200 0.0200 0.0191
2323.370817 0.0182 0.0180 0.0180 0.0180 0.0180
2328.043729 0.0180 0.0180 0.0188 0.0198 0.0200
2332.716641 0.0200 0.0200 0.0200 0.0200 0.0200
2337.389552 0.0204 0.0209 0.0210 0.0210 0.0210
2342.062464 0.0210 0.0210 0.0210 0.0210 0.0210
2346.735376 0.0210 0.0210 0.0217 0.0227 0.0230
2351.408288 0.0230 0.0233 0.0238 0.0246 0.0256
2356.081200 0.0263 0.0268 0.0273 0.0278 0.0286
2360.754111 0.0296 0.0300 0.0300 0.0300 0.0300
2365.427023 0.0303 0.0308 0.0310 0.0310 0.0310
2370.099935 0.0310 0.0310 0.0310 0.0315 0.0325
2374.772847 0.0330 0.0330 0.0332 0.0337 0.0357
2379.445759 0.0392 0.0731 0.1416 0.2083 0.2729
2384.118671 0.3557 0.4620 0.5450 0.5966 0.6372
2388.791582 0.6620 0.6876 0.7144 0.7439 0.7776
2393.464494 0.8100 0.8402 0.8818 0.9429 0.9824
2398.137406 0.9834 0.9843 0.9853 0.9863 0.9873
2402.810318 0.9882 0.9887 0.9893 0.9903 0.9910
2407.483230 0.9910 0.9910 0.9910 0.9911 0.9916
2412.156141 0.9920 0.9920 0.9922 0.9932 0.9940
2416.829053 0.9940 0.9940 0.9940 0.9940 0.9940
2421.501965 0.9940 0.9940 0.9938 0.9928 0.9920
2426.174877 0.9920 0.9920 0.9920 0.9920 0.9920
2430.847789 0.9920 0.9920 0.9920 0.9920 0.9920
2435.520701 0.9920 0.9920 0.9920 0.9920 0.9920
2440.193612 0.9920 0.9920 0.9920 0.9930 0.9940
2444.866524 0.9940 0.9940 0.9940 0.9940 0.9940
2449.539436 0.9940 0.9940 0.9940 0.9940 0.9940
2454.212348 0.9940 0.9940 0.9940 0.9940 0.9940
2458.885260 0.9940 0.9940 0.9940 0.9940 0.9940
2463.558172 0.9940 0.9940 0.9940 0.9940 0.9940
2468.231083 0.9940 0.9940 0.9940 0.9940 0.9940
2472.903995 0.9940 0.9940 0.9940 0.9940 0.9940
2477.576907 0.9940 0.9940 0.9940 0.9940 0.9940
2482.249819 0.9940 0.9940 0.9940 0.9940 0.9940
2486.922731 0.9940 0.9940 0.9940 0.9940 0.9940
2491.595642 0.9940 0.9940 0.9940 0.9940 0.9940
2496.268554 0.9940 0.9940 0.9940 0.9940 0.9940
2500.941466 0.9940 0.9940 0.9940 0.9940 0.9940
2505.614378 0.9940 0.9940 0.9940 0.9940 0.9940
2510.287290 0.9940 0.9940 0.9940 0.9940 0.9940
2514.960202 0.9940 0.9940 0.9940 0.9940 0.9940
2519.633113 0.9940 0.9940 0.9940 0.9940 0.9940
2524.306025 0.9940 0.9942 0.9947 0.9950 0.9950
2528.978937 0.9950 0.9950 0.9950 0.9950 0.9950
2533.651849 0.9950 0.9950 0.9950 0.9950 0.9950
2538.324761 0.9950 0.9950 0.9950 0.9950 0.9950
2542.997673 0.9950 0.9950 0.9950 0.9950 0.9950
2547.670584 0.9950 0.9950 0.9950 0.9950 0.9950
2552.343496 0.9950 0.9950 0.9950 0.9950 0.9950
2557.016408 0.9953 0.9963 0.9970 0.9970 0.9970
2561.689320 0.9970 0.9970 0.9970 0.9970 0.9970
2566.362232 0.9970 0.9970 0.9970 0.9970 0.9970
2571.035143 0.9970 0.9970 0.9970 0.9970 0.9970
2575.708055 0.9970 0.9970 0.9970 0.9970 0.9970
2580.380967 0.9970 0.9970 0.9970 0.9970 0.9970
2585.053879 0.9970 0.9970 0.9970 0.9970 0.9970
2589.726791 0.9975 0.9980 0.9980 0.9980 0.9980
2594.399703 0.9980 0.9980 0.9980 0.9980 0.9980
2599.072614 0.9980 0.9980 0.9980 0.9980 0.9980
2603.745526 0.9980 0.9980 0.9980 0.9980 0.9980
2608.418438 0.9980 0.9980 0.9980 0.9980 0.9980
2613.091350 0.9980 0.9980 0.9980 0.9980 0.9980
2617.764262 0.9980 0.9980 0.9980 0.9980 0.9980
2622.437173 0.9980 0.9980 0.9980 0.9980 0.9980
2627.110085 0.9980 0.9980 0.9980 0.9980 0.9980
2631.782997 0.9980 0.9980 0.9980 0.9980 0.9980
2636.455909 0.9980 0.9980 0.9980 0.9980 0.9980
2641.128821 0.9980 0.9980 0.9980 0.9980 0.9980
2645.801733 0.9980 0.9980 0.9980 0.9980 0.9980
2650.474644 0.9980 0.9987 0.9996 1.0000 1.0000
2655.147556 1.0000 1.0000 0.9994 0.9984 0.9980
2659.820468 0.9980 0.9980 0.9980 0.9980 0.9980
2664.493380 0.9980 0.9980 0.9980 0.9980 0.9980
2669.166292 0.9980 0.9977 0.9972 0.9970 0.9970
2673.839204 0.9970 0.9970 0.9970 0.9970 0.9970
2678.512115 0.9970 0.9970 0.9970 0.9970 0.9970
2683.185027 0.9970 0.9970 0.9972 0.9977 0.9980
2687.857939 0.9980 0.9980 0.9980 0.9980 0.9980
2692.530851 0.9980 0.9980 0.9980 0.9980 0.9980
2697.203763 0.9980 0.9980 0.9980 0.9980 0.9980
2701.876674 0.9980 0.9980 0.9980 0.9980 0.9980
2706.549586 0.9980 0.9980 0.9980 0.9980 0.9980
2711.222498 0.9980 0.9980 0.9980 0.9980 0.9980
2715.895410 0.9980 0.9980 0.9980 0.9980 0.9980
2720.568322 0.9980 0.9980 0.9980 0.9980 0.9980
2725.241234 0.9980 0.9980 0.9980 0.9980 0.9980
2729.914145 0.9980 0.9980 0.9980 0.9980 0.9980
2734.587057 0.9980 0.9980 0.9980 0.9980 0.9980
2739.259969 0.9980 0.9980 0.9980 0.9980 0.9980
2743.932881 0.9980 0.9980 0.9980 0.9980 0.9980
2748.605793 0.9980 0.9980 0.9980 0.9980 0.9980
2753.278704 0.9980 0.9980 0.9980 0.9980 0.9980
2757.951616 0.9980 0.9980 0.9980 0.9980 0.9980
2762.624528 0.9980 0.9980 0.9980 0.9980 0.9980
2767.297440 0.9980 0.9980 0.9980 0.9980 0.9980
2771.970352 0.9980 0.9980 0.9980 0.9980 0.9980
2776.643264 0.9980 0.9980 0.9980 0.9980 0.9980
2781.316175 0.9980 0.9980 0.9980 0.9980 0.9980
2785.989087 0.9980 0.9980 0.9980 0.9980 0.9980
2790.661999 0.9980 0.9980 0.9980 0.9980 0.9980
2795.334911 0.9980 0.9980 0.9980 0.9980 0.9980
2800.007823 0.9980 0.9980 0.9980 0.9980 0.9980
2804.680735 0.9980 0.9980 0.9980 0.9980 0.9980
2809.353646 0.9980 0.9980 0.9980 0.9980 0.9980
2814.026558 0.9980 0.9980 0.9980 0.9980 0.9980
2818.699470 0.9980 0.9980 0.9980 0.9980 0.9980
2823.372382 0.9980 0.9980 0.9980 0.9980 0.9980
2828.045294 0.9980 0.9980 0.9980 0.9980 0.9980
2832.718205 0.9980 0.9984 0.9994 0.9996 0.9986
2837.391117 0.9986 1.0001 1.0012 1.0017 1.0020
2842.064029 1.0020 1.0020 1.0020 1.0020 1.0020
2846.736941 1.0020 1.0020 1.0018 1.0013 1.0010
2851.409853 1.0010 1.0005 0.9990 0.9975 0.9961
2856.082765 0.9946 0.9931 0.9920 0.9920 0.9919
2860.755676 0.9914 0.9910 0.9910 0.9910 0.9910
2865.428588 0.9910 0.9910 0.9910 0.9910 0.9911
2870.101500 0.9916 0.9920 0.9920 0.9922 0.9932
2874.774412 0.9940 0.9940 0.9941 0.9946 0.9950
2879.447324 0.9950 0.9951 0.9961 0.9970 0.9970
2884.120235 0.9970 0.9970 0.9970 0.9975 0.9980
2888.793147 0.9980 0.9980 0.9980 0.9980 0.9980
2893.466059 0.9980 0.9980 0.9980 0.9990 1.0000
2898.138971 1.0000 1.0000 1.0000 1.0000 1.0005
2902.811883 1.0010 1.0010 1.0010 1.0010 1.0010
2907.484795 1.0015 1.0020 1.0020 1.0020 1.0029
2912.157706 1.0039 1.0040 1.0040 1.0040 1.0040
2916.830618 1.0040 1.0040 1.0040 1.0040 1.0031
2921.503530 1.0021 1.0020 1.0020 1.0012 1.0002
2926.176442 0.9988 0.9973 0.9950 0.9925 0.9908
2930.849354 0.9893 0.9878 0.9863 0.9856 0.9851
2935.522266 0.9846 0.9841 0.9840 0.9840 0.9840
2940.195177 0.9840 0.9840 0.9840 0.9844 0.9849
2944.868089 0.9854 0.9858 0.9860 0.9860 0.9860
2949.541001 0.9860 0.9860 0.9860 0.9866 0.9876
2954.213913 0.9880 0.9880 0.9880 0.9880 0.9880
2958.886825 0.9880 0.9880 0.9880 0.9883 0.9888
2963.559736 0.9890 0.9890 0.9890 0.9890 0.9890
2968.232648 0.9890 0.9895 0.9905 0.9913 0.9918
2972.905560 0.9920 0.9920 0.9920 0.9920 0.9920
2977.578472 0.9920 0.9920 0.9920 0.9920 0.9920
2982.251384 0.9920 0.9920 0.9920 0.9920 0.9920
2986.924296 0.9920 0.9920 0.9920 0.9920 0.9920
2991.597207 0.9920 0.9920 0.9920 0.9920 0.9920
2996.270119 0.9920 0.9920 0.9920 0.9920 0.9920
3000.943031 0.9920 0.9920 0.9920 0.9920 0.9920
3005.615943 0.9920 0.9920 0.9920 0.9920 0.9920
3010.288855 0.9920 0.9920 0.9920 0.9920 0.9920
3014.961767 0.9920 0.9920 0.9920 0.9920 0.9920
3019.634678 0.9920 0.9920 0.9920 0.9920 0.9920
3024.307590 0.9920 0.9920 0.9920 0.9920 0.9920
3028.980502 0.9920 0.9920 0.9920 0.9920 0.9920
3033.653414 0.9920 0.9920 0.9920 0.9920 0.9915
3038.326326 0.9910 0.9910 0.9910 0.9910 0.9910
3042.999237 0.9910 0.9910 0.9910 0.9910 0.9910
3047.672149 0.9910 0.9910 0.9910 0.9910 0.9910
3052.345061 0.9910 0.9910 0.9910 0.9910 0.9910
3057.017973 0.9910 0.9910 0.9910 0.9910 0.9910
3061.690885 0.9915 0.9920 0.9920 0.9920 0.9920
3066.363797 0.9920 0.9920 0.9920 0.9920 0.9920
3071.036708 0.9920 0.9920 0.9920 0.9920 0.9920
3075.709620 0.9920 0.9928 0.9938 0.9940 0.9940
3080.382532 0.9940 0.9940 0.9940 0.9940 0.9940
3085.055444 0.9940 0.9940 0.9940 0.9940 0.9940
3089.728356 0.9940 0.9940 0.9940 0.9940 0.9940
3094.401267 0.9940 0.9940 0.9940 0.9940 0.9940
3099.074179 0.9940 0.9940 0.9940 0.9940 0.9940
3103.747091 0.9940 0.9940 0.9940 0.9940 0.9940
3108.420003 0.9940 0.9940 0.9940 0.9940 0.9940
3113.092915 0.9940 0.9940 0.9940 0.9940 0.9940
3117.765827 0.9940 0.9940 0.9940 0.9940 0.9940
3122.438738 0.9940 0.9940 0.9940 0.9942 0.9947
3127.111650 0.9950 0.9950 0.9950 0.9950 0.9950
3131.784562 0.9950 0.9950 0.9950 0.9950 0.9950
3136.457474 0.9954 0.9964 0.9970 0.9970 0.9970
3141.130386 0.9970 0.9970 0.9970 0.9970 0.9970
3145.803298 0.9970 0.9970 0.9970 0.9970 0.9972
3150.476209 0.9977 0.9980 0.9980 0.9980 0.9980
3155.149121 0.9980 0.9980 0.9980 0.9980 0.9980
3159.822033 0.9980 0.9980 0.9980 0.9980 0.9980
3164.494945 0.9980 0.9980 0.9980 0.9980 0.9980
3169.167857 0.9980 0.9980 0.9980 0.9980 0.9980
3173.840768 0.9980 0.9980 0.9980 0.9980 0.9980
3178.513680 0.9980 0.9980 0.9980 0.9980 0.9980
3183.186592 0.9980 0.9980 0.9980 0.9980 0.9980
3187.859504 0.9980 0.9980 0.9980 0.9980 0.9980
3192.532416 0.9980 0.9980 0.9980 0.9980 0.9980
3197.205328 0.9980 0.9980 0.9980 0.9980 0.9980
3201.878239 0.9980 0.9980 0.9980 0.9980 0.9980
3206.551151 0.9980 0.9980 0.9980 0.9980 0.9980
3211.224063 0.9980 0.9980 0.9980 0.9980 0.9980
3215.896975 0.9980 0.9980 0.9980 0.9980 0.9980
3220.569887 0.9980 0.9980 0.9980 0.9980 0.9980
3225.242798 0.9980 0.9980 0.9980 0.9980 0.9980
3229.915710 0.9980 0.9980 0.9980 0.9980 0.9980
3234.588622 0.9980 0.9980 0.9980 0.9980 0.9980
3239.261534 0.9980 0.9980 0.9980 0.9980 0.9980
3243.934446 0.9980 0.9980 0.9980 0.9980 0.9980
3248.607358 0.9980 0.9980 0.9980 0.9987 0.9996
3253.280269 1.0000 1.0000 1.0000 1.0000 1.0000
3257.953181 1.0000 1.0000 1.0000 1.0000 1.0000
3262.626093 1.0000 1.0000 1.0000 1.0000 1.0000
3267.299005 1.0000 1.0000 1.0000 1.0000 1.0000
3271.971917 1.0000 1.0000 1.0000 1.0000 1.0000
3276.644829 1.0000 1.0000 1.0000 1.0000 1.0000
3281.317740 1.0000 1.0000 1.0000 1.0000 1.0000
3285.990652 1.0000 1.0002 1.0007 1.0010 1.0010
3290.663564 1.0010 1.0010 1.0010 1.0010 1.0010
3295.336476 1.0010 1.0010 1.0010 1.0010 1.0010
3300.009388 1.0010 1.0010 1.0010 1.0010 1.0010
3304.682299 1.0010 1.0010 1.0010 1.0010 1.0010
3309.355211 1.0010 1.0010 1.0010 1.0010 1.0010
3314.028123 1.0010 1.0010 1.0010 1.0010 1.0010
3318.701035 1.0010 1.0010 1.0010 1.0010 1.0010
3323.373947 1.0010 1.0010 1.0010 1.0010 1.0010
3328.046859 1.0010 1.0010 1.0010 1.0010 1.0010
3332.719770 1.0010 1.0010 1.0010 1.0010 1.0010
3337.392682 1.0010 1.0010 1.0010 1.0010 1.0010
3342.065594 1.0010 1.0010 1.0010 1.0010 1.0010
3346.738506 1.0010 1.0010 1.0010 1.0010 1.0010
3351.411418 1.0010 1.0010 1.0010 1.0010 1.0010
3356.084329 1.0010 1.0010 1.0010 1.0010 1.0010
3360.757241 1.0010 1.0010 1.0010 1.0010 1.0010
3365.430153 1.0010 1.0010 1.0010 1.0010 1.0010
3370.103065 1.0010 1.0010 1.0010 1.0010 1.0010
3374.775977 1.0010 1.0010 1.0010 1.0010 1.0010
3379.448889 1.0010 1.0010 1.0010 1.0010 1.0010
3384.121800 1.0010 1.0010 1.0010 1.0010 1.0010
3388.794712 1.0010 1.0010 1.0010 1.0010 1.0010
3393.467624 1.0010 1.0010 1.0010 1.0010 1.0010
3398.140536 1.0010 1.0010 1.0010 1.0010 1.0010
3402.813448 1.0010 1.0010 1.0010 1.0010 1.0010
3407.486360 1.0010 1.0010 1.0010 1.0010 1.0010
3412.159271 1.0010 1.0010 1.0010 1.0010 1.0010
3416.832183 1.0010 1.0010 1.0010 1.0010 1.0010
3421.505095 1.0010 1.0010 1.0010 1.0010 1.0010
3426.178007 1.0010 1.0010 1.0010 1.0010 1.0010
3430.850919 1.0010 1.0010 1.0010 1.0010 1.0010
3435.523830 1.0010 1.0010 1.0010 1.0010 1.0010
3440.196742 1.0010 1.0010 1.0010 1.0008 1.0003
3444.869654 1.0000 1.0000 1.0000 1.0000 1.0000
3449.542566 1.0000 1.0000 1.0000 1.0000 1.0000
3454.215478 1.0000 1.0000 1.0000 1.0000 1.0000
3458.888390 1.0000 1.0000 1.0000 1.0000 1.0000
3463.561301 1.0000 1.0000 1.0000 1.0000 1.0000
3468.234213 1.0000 1.0000 1.0000 1.0000 1.0000
3472.907125 1.0000 1.0000 1.0000 1.0000 1.0000
3477.580037 1.0000 1.0000 1.0000 1.0000 1.0000
3482.252949 1.0000 1.0000 1.0000 1.0000 1.0000
3486.925861 1.0000 1.0000 1.0000 1.0000 1.0000
3491.598772 0.9999 0.9989 0.9980 0.9980 0.9980
3496.271684 0.9980 0.9980 0.9975 0.9970 0.9970
3500.944596 0.9970 0.9970 0.9970 0.9970 0.9970
3505.617508 0.9960 0.9950 0.9950 0.9950 0.9950
3510.290420 0.9950 0.9950 0.9950 0.9950 0.9950
3514.963331 0.9945 0.9941 0.9940 0.9940 0.9931
3519.636243 0.9921 0.9920 0.9920 0.9916 0.9911
3524.309155 0.9910 0.9910 0.9902 0.9892 0.9890
3528.982067 0.9890 0.9886 0.9881 0.9872 0.9862
3533.654979 0.9860 0.9860 0.9856 0.9851 0.9839
3538.327891 0.9824 0.9816 0.9811 0.9803 0.9793
3543.000802 0.9765 0.9730 0.9706 0.9686 0.9670
3547.673714 0.9655 0.9630 0.9600 0.9570 0.9540
3552.346626 0.9504 0.9464 0.9431 0.9401 0.9368
3557.019538 0.9334 0.9302 0.9272 0.9221 0.9156
3561.692450 0.9100 0.9050 0.9024 0.9014 0.8993
3566.365361 0.8963 0.8947 0.8942 0.8924 0.8894
3571.038273 0.8854 0.8804 0.8752 0.8697 0.8633
3575.711185 0.8558 0.8496 0.8446 0.8328 0.8132
3580.384097 0.7940 0.7751 0.7581 0.7432 0.7243
3585.057009 0.7005 0.6842 0.6777 0.6713 0.6648
3589.729921 0.6608 0.6603 0.6602 0.6607 0.6619
3594.402832 0.6644 0.6665 0.6680 0.6709 0.6764
3599.075744 0.6828 0.6907 0.7074 0.7412 0.7830
3603.748656 0.8415 0.8820 0.8820 0.8753 0.8524
3608.421568 0.8318 0.8169 0.7946 0.7514 0.7149
3613.094480 0.6985 0.6816 0.6627 0.6442 0.6272
3617.767392 0.6138 0.6128 0.6123 0.6138 0.6173
3622.440303 0.6287 0.6401 0.6515 0.6629 0.6743
3627.113215 0.6855 0.6949 0.7047 0.7171 0.7311
3631.786127 0.7559 0.7822 0.8204 0.8570 0.8781
3636.459039 0.8982 0.9101 0.9222 0.9361 0.9495
3641.131951 0.9565 0.9634 0.9698 0.9760 0.9770
3645.804862 0.9780 0.9780 0.9780 0.9780 0.9780
3650.477774 0.9770 0.9760 0.9755 0.9750 0.9716
3655.150686 0.9681 0.9617 0.9552 0.9478 0.9404
3659.823598 0.9372 0.9342 0.9243 0.9138 0.9116
3664.496510 0.9101 0.9073 0.9043 0.9000 0.8956
3669.169422 0.8828 0.8689 0.8521 0.8347 0.8227
3673.842333 0.8116 0.8054 0.7999 0.7953 0.7908
3678.515245 0.7863 0.7819 0.7610 0.7361 0.7145
3683.188157 0.6936 0.6820 0.6731 0.6619 0.6500
3687.861069 0.6425 0.6366 0.6288 0.6204 0.6119
3692.533981 0.6033 0.5945 0.5856 0.5830 0.5830
3697.206892 0.5916 0.6041 0.6114 0.6164 0.6352
3701.879804 0.6610 0.6869 0.7127 0.7382 0.7635
3706.552716 0.7745 0.7770 0.7523 0.7101 0.6629
3711.225628 0.6122 0.5714 0.5372 0.5131 0.4962
3715.898540 0.4890 0.4890 0.4912 0.4952 0.5035
3720.571452 0.5154 0.5275 0.5400 0.5508 0.5603
3725.244363 0.5695 0.5784 0.5907 0.6066 0.6324
3729.917275 0.6695 0.7065 0.7432 0.7790 0.8138
3734.590187 0.8463 0.8761 0.9024 0.9243 0.9418
3739.263099 0.9532 0.9656 0.9795 0.9897 0.9942
3743.936011 0.9972 0.9977 0.9984 0.9993 1.0000
3748.608923 1.0000 1.0002 1.0007 1.0010 1.0010
3753.281834 1.0012 1.0017 1.0020 1.0020 1.0020
3757.954746 1.0020 1.0020 1.0020 1.0020 1.0020
3762.627658 1.0020 1.0020 1.0020 1.0020 1.0020
3767.300570 1.0020 1.0020 1.0020 1.0020 1.0020
3771.973482 1.0020 1.0020 1.0020 1.0020 1.0020
3776.646393 1.0020 1.0019 1.0014 1.0010 1.0010
3781.319305 1.0010 1.0010 1.0010 1.0010 1.0010
3785.992217 1.0010 1.0010 1.0010 1.0010 1.0010
3790.665129 1.0010 1.0010 1.0010 1.0010 1.0010
3795.338041 1.0010 1.0009 0.9974
##END=
