##TITLE=Carbon dioxide
##JCAMP-DX=4.24
##DATA TYPE=INFRARED SPECTRUM
##ORIGIN=Sadtler Research Labs Under US-EPA Contract
##OWNER=NIST Standard Reference Data Program
Collection (C) 2007 copyright by the U.S. Secretary of Commerce
on behalf of the United States of America. All rights reserved.
##CAS REGISTRY NO=124-38-9
##MOLFORM=CO2
##$NIST SOURCE=MSDC-IR
##STATE=gas
##XUNITS=1/CM
##YUNITS=ABSORBANCE
##XFACTOR=1.0
##YFACTOR=0.000093430
##DELTAX=4.0
##FIRSTX=450.0
##LASTX=3966.0
##FIRSTY=0.000000
##MAXX=3966
##MINX=450
##MAXY=0.9343
##MINY=0
##NPOINTS=880
##XYDATA=(X++(Y..Y))
450.0 0 20 194 154 232 210 279 220 275 217
490.0 162 180 144 187 163 185 149 137 119 161
530.0 160 183 201 199 211 164 216 164 222 201
570.0 276 214 269 286 297 307 277 429 281 367
610.0 244 526 662 558 284 548 592 797 835 989
650.0 1320 1050 1133 567 990 2478 1671 1061 1338 1211
690.0 1398 1140 1008 885 689 649 299 771 711 404
730.0 357 354 351 457 331 349 319 350 293 292
770.0 309 276 272 256 287 257 290 274 286 275
810.0 278 290 268 290 273 292 262 295 282 280
850.0 283 289 282 270 282 271 270 255 279 258
890.0 259 268 255 250 243 255 242 243 235 242
930.0 227 230 228 225 223 218 223 209 223 213
970.0 213 206 210 208 197 203 206 206 195 197
1010.0 196 202 197 205 204 206 202 204 206 197
1050.0 203 197 196 191 191 187 186 193 186 189
1090.0 180 185 178 182 182 185 182 184 186 181
1130.0 185 176 185 179 182 179 175 178 170 170
1170.0 165 170 164 168 162 164 158 162 164 163
1210.0 163 162 165 164 168 163 165 166 164 167
1250.0 166 164 161 163 160 163 162 158 159 158
1290.0 156 155 157 159 156 156 156 156 159 160
1330.0 157 159 153 155 156 154 148 152 152 150
1370.0 151 148 148 147 150 145 145 147 152 148
1410.0 149 145 144 146 142 141 139 142 143 141
1450.0 140 140 143 140 138 136 143 139 138 138
1490.0 139 140 139 137 140 144 136 138 142 144
1530.0 141 138 144 145 138 135 135 143 146 137
1570.0 139 136 143 137 133 135 129 132 131 134
1610.0 132 129 137 130 133 126 131 130 130 124
1650.0 134 134 133 122 127 127 131 118 123 130
1690.0 118 118 126 124 121 117 118 121 119 112
1730.0 117 122 116 115 116 117 111 110 110 111
1770.0 111 116 108 107 107 104 108 105 107 106
1810.0 106 105 106 102 104 107 104 102 104 106
1850.0 104 102 102 105 101 104 100 99 100 97
1890.0 100 99 100 98 101 101 101 97 98 98
1930.0 94 98 96 99 91 94 93 97 96 94
1970.0 95 94 93 91 93 88 95 93 95 92
2010.0 92 91 90 91 90 93 85 92 89 88
2050.0 90 89 88 88 88 85 85 91 87 80
2090.0 86 83 79 78 78 84 79 81 78 80
2130.0 81 80 76 76 80 74 78 74 76 73
2170.0 76 75 73 72 73 75 70 72 69 75
2210.0 72 77 78 88 92 100 117 135 165 191
2250.0 233 267 315 355 415 471 575 733 923 1267
2290.0 1766 2468 3104 3440 4147 5269 4961 5231 5968 5972
2330.0 6298 6339 6224 6861 6914 5967 6957 10000 9401 9302
2370.0 7313 5638 4048 2844 1633 563 118 65 55 67
2410.0 60 63 59 65 57 58 59 53 54 49
2450.0 57 49 54 49 53 47 47 51 46 50
2490.0 47 50 44 49 45 42 41 45 44 40
2530.0 42 39 41 38 41 42 39 39 36 36
2570.0 39 37 37 34 35 34 35 36 35 32
2610.0 32 29 36 30 33 33 31 30 30 28
2650.0 25 28 29 30 28 29 28 26 22 25
2690.0 25 28 29 28 26 28 32 29 26 28
2730.0 30 28 31 26 26 26 27 31 32 31
2770.0 29 28 28 32 30 27 31 26 27 27
2810.0 29 32 34 30 35 35 32 30 31 32
2850.0 30 29 34 31 32 32 32 30 29 31
2890.0 29 30 28 31 32 30 27 29 29 28
2930.0 29 31 32 30 29 29 31 31 30 31
2970.0 30 27 24 26 26 29 29 27 29 30
3010.0 25 22 24 26 28 27 27 25 27 28
3050.0 27 29 24 28 24 28 30 32 24 27
3090.0 29 27 32 29 30 32 34 30 34 38
3130.0 37 38 39 39 35 33 36 37 40 40
3170.0 39 42 41 39 40 39 41 40 38 38
3210.0 41 41 42 41 44 44 44 42 45 47
3250.0 50 46 48 48 47 44 47 51 43 48
3290.0 46 56 51 46 48 53 55 52 56 58
3330.0 57 55 60 54 51 63 63 53 51 56
3370.0 56 59 55 49 54 55 57 53 52 51
3410.0 48 56 62 55 54 54 54 54 52 58
3450.0 60 55 56 59 61 53 57 51 52 51
3490.0 66 58 59 61 66 66 63 66 59 68
3530.0 68 79 86 86 102 107 121 133 150 164
3570.0 171 178 187 207 264 313 355 366 344 305
3610.0 199 135 192 288 358 403 361 300 229 159
3650.0 117 90 78 89 101 139 158 204 241 297
3690.0 345 388 423 459 432 385 218 234 371 488
3730.0 575 619 580 482 334 207 108 69 51 38
3770.0 38 39 35 36 41 39 36 44 44 53
3810.0 34 55 68 56 41 42 52 54 33 31
3850.0 61 86 52 40 48 60 55 37 54 50
3890.0 52 53 54 59 49 55 65 64 57 57
3930.0 53 53 56 54 62 55 70 77 75 64
##END=
