##TITLE=1,4-DIOXANE
##JCAMP-DX=4.24
##DATA TYPE=INFRARED SPECTRUM
##CLASS=COBLENTZ III
##ORIGIN=DOW CHEMICAL COMPANY
##OWNER=COBLENTZ SOCIETY
Collection (C) 2007 copyright by the U.S. Secretary of Commerce
on behalf of the United States of America. All rights reserved.
##DATE=1966/10/17
##CAS REGISTRY NO=123-91-1
##MOLFORM=C4H8O2
##SOURCE REFERENCE=COBLENTZ NO. 10233
##$NIST SOURCE=COBLENTZ
##$NIST IMAGE=cob10233
##SPECTROMETER/DATA SYSTEM=DOW KBr FOREPRISM-GRATING
##INSTRUMENT PARAMETERS=BLAZED AT 3.5, 12.0, 20.0 MICRON, CHANGED AT 5.0, 7.5, 14.9 MICRON
##STATE=SOLUTION (10% IN CCl4 FOR 3800-1340, 10% IN CS2 FOR 1340-460 CM^-^1)
##PATH LENGTH=0.011, 0.011 CM
$$SPECTRAL CONTAMINATION DUE TO CCl4 AROUND 1550 CM^-^1
##SAMPLING PROCEDURE=TRANSMISSION
##RESOLUTION=4
##DATA PROCESSING=DIGITIZED BY NIST FROM HARD COPY (FROM TWO SEGMENTS)
##XUNITS=1/CM
##YUNITS=TRANSMITTANCE
##XFACTOR=1.000000
##YFACTOR=1
##DELTAX=0.853730
##FIRSTX=464.143
##LASTX=3795.4
##FIRSTY=0.93
##MAXX=3795.4
##MINX=464.143
##MAXY=1.034
##MINY=0
##NPOINTS=3903
##XYDATA=(X++(Y..Y))
464.143000 0.9300 0.9300 0.9290 0.9290 0.9290
468.411652 0.9270 0.9270 0.9270 0.9270 0.9270
472.680303 0.9260 0.9260 0.9250 0.9250 0.9230
476.948955 0.9230 0.9220 0.9220 0.9220 0.9220
481.217606 0.9230 0.9250 0.9260 0.9270 0.9270
485.486258 0.9290 0.9290 0.9270 0.9270 0.9270
489.754909 0.9290 0.9290 0.9300 0.9300 0.9300
494.023561 0.9300 0.9310 0.9310 0.9310 0.9310
498.292212 0.9310 0.9310 0.9290 0.9290 0.9290
502.560864 0.9290 0.9300 0.9300 0.9310 0.9310
506.829515 0.9310 0.9310 0.9310 0.9300 0.9300
511.098167 0.9270 0.9260 0.9260 0.9260 0.9260
515.366819 0.9260 0.9260 0.9260 0.9260 0.9260
519.635470 0.9260 0.9260 0.9260 0.9260 0.9250
523.904122 0.9250 0.9250 0.9250 0.9250 0.9250
528.172773 0.9260 0.9260 0.9260 0.9270 0.9290
532.441425 0.9290 0.9300 0.9310 0.9310 0.9310
536.710076 0.9310 0.9310 0.9310 0.9310 0.9310
540.978728 0.9310 0.9310 0.9330 0.9330 0.9330
545.247379 0.9330 0.9340 0.9330 0.9330 0.9330
549.516031 0.9330 0.9330 0.9330 0.9330 0.9330
553.784682 0.9330 0.9340 0.9340 0.9330 0.9330
558.053334 0.9330 0.9330 0.9330 0.9330 0.9330
562.321985 0.9330 0.9330 0.9330 0.9330 0.9330
566.590637 0.9310 0.9310 0.9310 0.9310 0.9310
570.859289 0.9310 0.9310 0.9310 0.9310 0.9310
575.127940 0.9300 0.9290 0.9290 0.9290 0.9270
579.396592 0.9270 0.9260 0.9250 0.9230 0.9220
583.665243 0.9210 0.9180 0.9150 0.9140 0.9120
587.933895 0.9100 0.9080 0.9040 0.8990 0.8950
592.202546 0.8920 0.8910 0.8840 0.8790 0.8750
596.471198 0.8710 0.8640 0.8620 0.8590 0.8481
600.739849 0.8320 0.8160 0.7970 0.7830 0.7591
605.008501 0.7321 0.4012 0.3651 0.2953 0.2572
609.277152 0.1720 0.1270 0.1270 0.1480 0.2218
613.545804 0.2709 0.2989 0.4006 0.4349 0.4788
617.814456 0.5630 0.6150 0.6370 0.7089 0.7589
622.083107 0.7849 0.8030 0.8319 0.8509 0.8590
626.351759 0.8710 0.8800 0.8900 0.8920 0.8980
630.620410 0.9030 0.9080 0.9140 0.9150 0.9180
634.889062 0.9210 0.9220 0.9230 0.9230 0.9220
639.157713 0.9220 0.9210 0.9190 0.9180 0.9170
643.426365 0.9170 0.9170 0.9150 0.9140 0.9140
647.695016 0.9140 0.9140 0.9120 0.9120 0.9120
651.963668 0.9140 0.9180 0.9190 0.9210 0.9230
656.232319 0.9270 0.9310 0.9330 0.9350 0.9380
660.500971 0.9410 0.9450 0.9470 0.9490 0.9510
664.769622 0.9540 0.9540 0.9550 0.9660 0.9690
669.038274 0.9730 0.9700 0.9670 0.9650 0.9620
673.306926 0.9610 0.9580 0.9570 0.9550 0.9540
677.575577 0.9540 0.9540 0.9550 0.9550 0.9580
681.844229 0.9590 0.9620 0.9630 0.9650 0.9660
686.112880 0.9670 0.9690 0.9690 0.9690 0.9700
690.381532 0.9700 0.9710 0.9730 0.9750 0.9770
694.650183 0.9770 0.9770 0.9780 0.9780 0.9790
698.918835 0.9790 0.9790 0.9790 0.9790 0.9790
703.187486 0.9790 0.9790 0.9810 0.9820 0.9820
707.456138 0.9820 0.9830 0.9850 0.9850 0.9860
711.724789 0.9890 0.9900 0.9910 0.9930 0.9940
715.993441 0.9970 0.9970 0.9980 0.9980 1.0000
720.262093 1.0010 1.0010 1.0020 1.0040 1.0050
724.530744 1.0050 1.0060 1.0080 1.0100 1.0100
728.799396 1.0100 1.0100 1.0100 1.0090 1.0090
733.068047 1.0100 1.0100 1.0100 1.0100 1.0100
737.336699 1.0120 1.0120 1.0130 1.0130 1.0140
741.605350 1.0160 1.0160 1.0160 1.0170 1.0180
745.874002 1.0180 1.0200 1.0200 1.0210 1.0220
750.142653 1.0220 1.0240 1.0240 1.0250 1.0250
754.411305 1.0250 1.0260 1.0260 1.0280 1.0290
758.679956 1.0290 1.0290 1.0300 1.0320 1.0320
762.948608 1.0330 1.0330 1.0330 1.0330 1.0330
767.217259 1.0330 1.0330 1.0330 1.0330 1.0330
771.485911 1.0330 1.0340 1.0340 1.0340 1.0330
775.754563 1.0330 1.0330 1.0330 1.0320 1.0320
780.023214 1.0320 1.0300 1.0300 1.0300 1.0290
784.291866 1.0280 1.0260 1.0260 1.0250 1.0250
788.560517 1.0250 1.0250 1.0250 1.0240 1.0240
792.829169 1.0220 1.0220 1.0220 1.0200 1.0200
797.097820 1.0200 1.0180 1.0180 1.0180 1.0180
801.366472 1.0180 1.0170 1.0170 1.0170 1.0170
805.635123 1.0170 1.0160 1.0160 1.0160 1.0140
809.903775 1.0140 1.0140 1.0130 1.0130 1.0130
814.172426 1.0120 1.0100 1.0090 1.0080 1.0080
818.441078 1.0060 1.0040 1.0020 1.0010 1.0000
822.709730 0.9980 0.9980 0.9930 0.9890 0.9820
826.978381 0.9770 0.9700 0.9660 0.9610 0.9580
831.247033 0.9490 0.9370 0.9340 0.9270 0.9210
835.515684 0.9150 0.9070 0.8990 0.8940 0.8900
839.784336 0.8840 0.8760 0.8680 0.8550 0.8500
844.052987 0.8320 0.8230 0.8120 0.7961 0.7870
848.321639 0.7750 0.7610 0.7510 0.7360 0.7200
852.590290 0.6960 0.6900 0.6760 0.6621 0.6501
856.858942 0.6370 0.6220 0.6020 0.5830 0.5550
861.127593 0.4841 0.4571 0.4321 0.3413 0.3111
865.396245 0.2320 0.1820 0.1081 0.0930 0.0770
869.664897 0.0341 0.0001 0.0000 0.0000 0.0000
873.933548 0.0010 0.0040 0.0060 0.0090 0.0160
878.202200 0.0210 0.0260 0.0320 0.0370 0.0579
882.470851 0.0610 0.0570 0.0520 0.0450 0.0300
886.739503 0.0300 0.0340 0.1088 0.1778 0.2338
891.008154 0.3981 0.4870 0.5480 0.5800 0.6150
895.276806 0.7278 0.7340 0.7559 0.7839 0.8029
899.545457 0.8170 0.8310 0.8550 0.8710 0.8840
903.814109 0.8900 0.8960 0.9100 0.9140 0.9190
908.082760 0.9220 0.9260 0.9290 0.9340 0.9370
912.351412 0.9460 0.9530 0.9540 0.9570 0.9610
916.620063 0.9650 0.9670 0.9690 0.9700 0.9710
920.888715 0.9730 0.9770 0.9780 0.9780 0.9790
925.157367 0.9790 0.9810 0.9820 0.9850 0.9870
929.426018 0.9900 0.9910 0.9940 0.9970 1.0000
933.694670 1.0010 1.0010 1.0020 1.0020 1.0040
937.963321 1.0060 1.0060 1.0060 1.0080 1.0090
942.231973 1.0100 1.0100 1.0120 1.0120 1.0120
946.500624 1.0120 1.0130 1.0130 1.0130 1.0140
950.769276 1.0160 1.0170 1.0180 1.0200 1.0220
955.037927 1.0220 1.0240 1.0250 1.0250 1.0250
959.306579 1.0250 1.0260 1.0290 1.0300 1.0300
963.575230 1.0320 1.0330 1.0330 1.0330 1.0330
967.843882 1.0330 1.0330 1.0330 1.0330 1.0330
972.112534 1.0340 1.0340 1.0330 1.0330 1.0330
976.381185 1.0330 1.0330 1.0330 1.0330 1.0330
980.649837 1.0320 1.0320 1.0320 1.0320 1.0320
984.918488 1.0320 1.0320 1.0300 1.0290 1.0280
989.187140 1.0280 1.0260 1.0260 1.0260 1.0250
993.455791 1.0240 1.0220 1.0210 1.0180 1.0170
997.724443 1.0140 1.0130 1.0120 1.0090 1.0050
1001.993094 1.0040 1.0020 1.0000 0.9940 0.9910
1006.261746 0.9870 0.9850 0.9820 0.9790 0.9780
1010.530397 0.9770 0.9700 0.9700 0.9690 0.9690
1014.799049 0.9690 0.9670 0.9670 0.9660 0.9650
1019.067700 0.9630 0.9630 0.9610 0.9580 0.9570
1023.336352 0.9550 0.9540 0.9510 0.9490 0.9460
1027.605004 0.9420 0.9380 0.9340 0.9340 0.9210
1031.873655 0.9140 0.9020 0.8920 0.8761 0.8710
1036.142307 0.8560 0.8420 0.8320 0.7990 0.7770
1040.410958 0.7400 0.6262 0.5951 0.5681 0.5401
1044.679610 0.4569 0.4100 0.3760 0.3250 0.3250
1048.948261 0.3610 0.4019 0.4848 0.5668 0.6507
1053.216913 0.7240 0.7610 0.7790 0.8010 0.8150
1057.485564 0.8310 0.8340 0.8500 0.8550 0.8620
1061.754216 0.8640 0.8630 0.8630 0.8600 0.8560
1066.022867 0.8520 0.8440 0.8390 0.8310 0.8200
1070.291519 0.8030 0.7840 0.7690 0.7410 0.7100
1074.560171 0.6541 0.6300 0.5272 0.4562 0.3613
1078.828822 0.3069 0.2280 0.1710 0.1360 0.1360
1083.097474 0.1949 0.2379 0.3417 0.3699 0.4357
1087.366125 0.4641 0.5240 0.5400 0.5620 0.5630
1091.634777 0.5630 0.5620 0.5520 0.5430 0.5261
1095.903428 0.5120 0.4910 0.4590 0.4440 0.4190
1100.172080 0.3760 0.3341 0.3220 0.3031 0.2930
1104.440731 0.2740 0.2579 0.1950 0.1510 0.1200
1108.709383 0.1000 0.0920 0.0820 0.0481 0.0340
1112.978034 0.0130 0.0080 0.0040 0.0010 0.0010
1117.246686 0.0000 0.0000 0.0000 0.0000 0.0000
1121.515337 0.0000 0.0000 0.0000 0.0000 0.0000
1125.783989 0.0010 0.0010 0.0010 0.0040 0.0040
1130.052641 0.0080 0.0120 0.0280 0.0460 0.1150
1134.321292 0.1550 0.2019 0.2319 0.2829 0.3069
1138.589944 0.3580 0.3940 0.4480 0.4910 0.5599
1142.858595 0.5780 0.6089 0.6270 0.6429 0.6659
1147.127247 0.6930 0.7080 0.7220 0.7320 0.7550
1151.395898 0.7690 0.7840 0.7960 0.8030 0.8150
1155.664550 0.8240 0.8320 0.8390 0.8460 0.8510
1159.933201 0.8590 0.8620 0.8710 0.8750 0.8780
1164.201853 0.8820 0.8910 0.8920 0.8950 0.9000
1168.470504 0.9040 0.9080 0.9120 0.9170 0.9210
1172.739156 0.9260 0.9260 0.9310 0.9330 0.9350
1177.007808 0.9390 0.9460 0.9490 0.9500 0.9510
1181.276459 0.9530 0.9530 0.9530 0.9530 0.9540
1185.545111 0.9550 0.9570 0.9570 0.9580 0.9580
1189.813762 0.9590 0.9610 0.9620 0.9630 0.9650
1194.082414 0.9660 0.9670 0.9690 0.9700 0.9700
1198.351065 0.9700 0.9690 0.9690 0.9690 0.9670
1202.619717 0.9670 0.9670 0.9660 0.9660 0.9660
1206.888368 0.9650 0.9630 0.9620 0.9610 0.9610
1211.157020 0.9580 0.9570 0.9570 0.9550 0.9550
1215.425671 0.9550 0.9550 0.9550 0.9540 0.9540
1219.694323 0.9540 0.9530 0.9500 0.9490 0.9490
1223.962975 0.9470 0.9460 0.9430 0.9410 0.9380
1228.231626 0.9350 0.9330 0.9330 0.9270 0.9170
1232.500278 0.9110 0.9030 0.8940 0.8840 0.8760
1236.768929 0.8710 0.8590 0.8400 0.8310 0.8011
1241.037581 0.7709 0.7359 0.6780 0.6610 0.5750
1245.306232 0.4911 0.3652 0.1904 0.1401 0.1151
1249.574884 0.0950 0.0729 0.0290 0.0180 0.0300
1253.843535 0.0610 0.2108 0.2589 0.3219 0.3719
1258.112187 0.4881 0.5151 0.5552 0.6590 0.6680
1262.380838 0.7250 0.7380 0.7520 0.7760 0.7870
1266.649490 0.7950 0.7970 0.8030 0.8040 0.8010
1270.918141 0.8000 0.7970 0.7920 0.7880 0.7830
1275.186793 0.7770 0.7730 0.7450 0.7240 0.6890
1279.455445 0.6740 0.6141 0.5511 0.5081 0.4522
1283.724096 0.3979 0.3489 0.3140 0.3090 0.3140
1287.992748 0.3360 0.3500 0.3939 0.4269 0.4679
1292.261399 0.5300 0.5500 0.5750 0.6050 0.6330
1296.530051 0.6590 0.6919 0.7140 0.7449 0.7639
1300.798702 0.7790 0.7920 0.8040 0.8150 0.8190
1305.067354 0.8240 0.8310 0.8340 0.8390 0.8430
1309.336005 0.8460 0.8500 0.8520 0.8520 0.8500
1313.604657 0.8460 0.8420 0.8340 0.8250 0.8130
1317.873308 0.8050 0.8030 0.8030 0.8080 0.8170
1322.141960 0.8290 0.8510 0.8540 0.8630 0.8710
1326.410612 0.8720 0.8790 0.8800 0.8820 0.8840
1330.679263 0.8860 0.8870 0.8880 0.8910 0.8910
1334.947915 0.8910 0.8920 0.8920 0.8920 0.8920
1339.216566 0.8920 0.8920 0.8910 0.8920 0.8920
1343.485218 0.8920 0.8910 0.8900 0.8900 0.8880
1347.753869 0.8860 0.8830 0.8800 0.8780 0.8740
1352.022521 0.8700 0.8620 0.8560 0.8510 0.8350
1356.291172 0.8210 0.8040 0.7810 0.7650 0.6823
1360.559824 0.6069 0.5659 0.4750 0.4560 0.4170
1364.828475 0.3780 0.3530 0.3530 0.3769 0.4478
1369.097127 0.4834 0.6431 0.6770 0.6780 0.6760
1373.365778 0.6740 0.6760 0.6800 0.6930 0.7139
1377.634430 0.7320 0.7451 0.7971 0.8390 0.8580
1381.903082 0.8750 0.8920 0.8940 0.8940 0.8920
1386.171733 0.8910 0.8860 0.8830 0.8800 0.8800
1390.440385 0.8790 0.8790 0.8820 0.8840 0.8870
1394.709036 0.8910 0.8910 0.8920 0.8950 0.8980
1398.977688 0.8990 0.9000 0.9000 0.9020 0.9020
1403.246339 0.9020 0.9020 0.9030 0.9030 0.9040
1407.514991 0.9040 0.9060 0.9060 0.9060 0.9060
1411.783642 0.9060 0.9040 0.9040 0.9030 0.9030
1416.052294 0.9020 0.9000 0.8980 0.8980 0.8960
1420.320945 0.8940 0.8910 0.8840 0.8820 0.8800
1424.589597 0.8760 0.8720 0.8710 0.8700 0.8640
1428.858249 0.8590 0.8550 0.8470 0.8390 0.8320
1433.126900 0.8170 0.8050 0.7960 0.7830 0.7680
1437.395552 0.7399 0.7088 0.6110 0.5859 0.5379
1441.664203 0.4720 0.4040 0.3880 0.3700 0.3151
1445.932855 0.3150 0.3220 0.3230 0.3290 0.3290
1450.201506 0.3090 0.2750 0.2550 0.2261 0.2110
1454.470158 0.2112 0.3031 0.3360 0.3650 0.3940
1458.738809 0.4450 0.5020 0.5240 0.5759 0.6179
1463.007461 0.6581 0.6771 0.7170 0.7290 0.7410
1467.276112 0.7460 0.7600 0.7690 0.7810 0.7930
1471.544764 0.8001 0.8160 0.8170 0.8210 0.8250
1475.813415 0.8310 0.8320 0.8340 0.8350 0.8380
1480.082067 0.8390 0.8400 0.8470 0.8510 0.8520
1484.350719 0.8520 0.8540 0.8540 0.8540 0.8520
1488.619370 0.8520 0.8520 0.8510 0.8510 0.8500
1492.888022 0.8460 0.8430 0.8400 0.8380 0.8360
1497.156673 0.8340 0.8310 0.8270 0.8270 0.8210
1501.425325 0.8150 0.8110 0.8090 0.8040 0.7990
1505.693976 0.7960 0.7950 0.7880 0.7830 0.7790
1509.962628 0.7760 0.7710 0.7650 0.7610 0.7590
1514.231279 0.7570 0.7510 0.7480 0.7420 0.7410
1518.499931 0.7400 0.7340 0.7330 0.7250 0.7200
1522.768582 0.7170 0.7130 0.7090 0.7060 0.7020
1527.037234 0.6940 0.6920 0.6850 0.6820 0.6740
1531.305886 0.6660 0.6590 0.6530 0.6460 0.6350
1535.574537 0.6310 0.6170 0.6070 0.5950 0.5890
1539.843189 0.5890 0.5750 0.5640 0.5550 0.5480
1544.111840 0.5430 0.5360 0.5260 0.5230 0.5160
1548.380492 0.5120 0.5100 0.5070 0.5060 0.5070
1552.649143 0.5080 0.5100 0.5120 0.5180 0.5220
1556.917795 0.5230 0.5270 0.5350 0.5470 0.5540
1561.186446 0.5600 0.5700 0.5780 0.5860 0.5900
1565.455098 0.5990 0.6060 0.6150 0.6220 0.6290
1569.723749 0.6330 0.6420 0.6470 0.6530 0.6580
1573.992401 0.6580 0.6610 0.6660 0.6700 0.6720
1578.261052 0.6740 0.6760 0.6770 0.6800 0.6810
1582.529704 0.6840 0.6860 0.6890 0.6900 0.6930
1586.798356 0.6970 0.6980 0.7050 0.7080 0.7120
1591.067007 0.7180 0.7260 0.7380 0.7410 0.7480
1595.335659 0.7570 0.7610 0.7690 0.7800 0.7930
1599.604310 0.7960 0.8050 0.8130 0.8230 0.8310
1603.872962 0.8310 0.8380 0.8430 0.8510 0.8580
1608.141613 0.8600 0.8670 0.8680 0.8740 0.8780
1612.410265 0.8820 0.8840 0.8900 0.8910 0.8920
1616.678916 0.9060 0.9070 0.9080 0.9080 0.9100
1620.947568 0.9110 0.9110 0.9140 0.9140 0.9170
1625.216219 0.9180 0.9180 0.9210 0.9220 0.9230
1629.484871 0.9260 0.9270 0.9290 0.9310 0.9310
1633.753523 0.9330 0.9330 0.9340 0.9370 0.9380
1638.022174 0.9380 0.9380 0.9380 0.9380 0.9380
1642.290826 0.9390 0.9410 0.9420 0.9420 0.9430
1646.559477 0.9450 0.9450 0.9430 0.9430 0.9430
1650.828129 0.9430 0.9430 0.9450 0.9470 0.9490
1655.096780 0.9470 0.9460 0.9460 0.9460 0.9460
1659.365432 0.9470 0.9470 0.9470 0.9490 0.9490
1663.634083 0.9500 0.9500 0.9500 0.9500 0.9500
1667.902735 0.9510 0.9510 0.9530 0.9530 0.9530
1672.171386 0.9530 0.9530 0.9530 0.9530 0.9540
1676.440038 0.9540 0.9540 0.9540 0.9540 0.9540
1680.708690 0.9540 0.9540 0.9540 0.9540 0.9540
1684.977341 0.9540 0.9550 0.9550 0.9540 0.9540
1689.245993 0.9540 0.9530 0.9530 0.9530 0.9530
1693.514644 0.9510 0.9510 0.9510 0.9510 0.9510
1697.783296 0.9510 0.9500 0.9500 0.9490 0.9490
1702.051947 0.9470 0.9430 0.9410 0.9380 0.9340
1706.320599 0.9330 0.9310 0.9260 0.9220 0.9170
1710.589250 0.9120 0.9110 0.9100 0.9100 0.9110
1714.857902 0.9120 0.9150 0.9190 0.9190 0.9190
1719.126553 0.9170 0.9150 0.9140 0.9110 0.9030
1723.395205 0.9020 0.9000 0.8990 0.8980 0.8960
1727.663856 0.8940 0.8920 0.8920 0.8940 0.9020
1731.932508 0.9110 0.9190 0.9220 0.9260 0.9340
1736.201160 0.9350 0.9350 0.9350 0.9370 0.9370
1740.469811 0.9380 0.9390 0.9410 0.9420 0.9420
1744.738463 0.9450 0.9460 0.9490 0.9500 0.9510
1749.007114 0.9540 0.9540 0.9550 0.9550 0.9570
1753.275766 0.9570 0.9570 0.9570 0.9570 0.9580
1757.544417 0.9580 0.9590 0.9610 0.9610 0.9610
1761.813069 0.9610 0.9620 0.9630 0.9630 0.9650
1766.081720 0.9650 0.9650 0.9660 0.9660 0.9660
1770.350372 0.9660 0.9660 0.9660 0.9660 0.9650
1774.619023 0.9650 0.9650 0.9660 0.9670 0.9670
1778.887675 0.9670 0.9670 0.9690 0.9690 0.9690
1783.156327 0.9690 0.9690 0.9690 0.9690 0.9690
1787.424978 0.9700 0.9700 0.9710 0.9730 0.9730
1791.693630 0.9740 0.9740 0.9740 0.9740 0.9740
1795.962281 0.9730 0.9730 0.9730 0.9730 0.9730
1800.230933 0.9730 0.9730 0.9730 0.9730 0.9710
1804.499584 0.9700 0.9690 0.9690 0.9690 0.9690
1808.768236 0.9690 0.9700 0.9700 0.9700 0.9700
1813.036887 0.9700 0.9700 0.9700 0.9710 0.9710
1817.305539 0.9710 0.9710 0.9700 0.9700 0.9700
1821.574190 0.9700 0.9700 0.9710 0.9710 0.9710
1825.842842 0.9710 0.9710 0.9730 0.9730 0.9740
1830.111493 0.9740 0.9740 0.9740 0.9740 0.9740
1834.380145 0.9740 0.9740 0.9740 0.9740 0.9740
1838.648797 0.9740 0.9730 0.9730 0.9730 0.9710
1842.917448 0.9710 0.9710 0.9710 0.9710 0.9710
1847.186100 0.9700 0.9690 0.9690 0.9670 0.9670
1851.454751 0.9660 0.9650 0.9650 0.9650 0.9650
1855.723403 0.9650 0.9650 0.9660 0.9660 0.9670
1859.992054 0.9670 0.9670 0.9670 0.9670 0.9670
1864.260706 0.9670 0.9670 0.9670 0.9670 0.9670
1868.529357 0.9670 0.9670 0.9670 0.9660 0.9660
1872.798009 0.9660 0.9660 0.9660 0.9660 0.9660
1877.066660 0.9660 0.9650 0.9650 0.9650 0.9650
1881.335312 0.9650 0.9630 0.9630 0.9620 0.9610
1885.603964 0.9570 0.9570 0.9550 0.9540 0.9510
1889.872615 0.9500 0.9470 0.9460 0.9450 0.9450
1894.141267 0.9430 0.9410 0.9390 0.9350 0.9330
1898.409918 0.9260 0.9220 0.9180 0.9140 0.9110
1902.678570 0.9120 0.9210 0.9230 0.9260 0.9340
1906.947221 0.9390 0.9470 0.9540 0.9540 0.9570
1911.215873 0.9580 0.9610 0.9620 0.9620 0.9630
1915.484524 0.9620 0.9620 0.9610 0.9580 0.9570
1919.753176 0.9550 0.9570 0.9580 0.9610 0.9620
1924.021827 0.9630 0.9650 0.9650 0.9650 0.9650
1928.290479 0.9650 0.9630 0.9630 0.9630 0.9630
1932.559130 0.9630 0.9630 0.9620 0.9610 0.9590
1936.827782 0.9570 0.9570 0.9570 0.9570 0.9550
1941.096434 0.9550 0.9540 0.9540 0.9510 0.9490
1945.365085 0.9450 0.9420 0.9390 0.9370 0.9330
1949.633737 0.9310 0.9230 0.9110 0.9080 0.8990
1953.902388 0.8920 0.8830 0.8740 0.8640 0.8620
1958.171040 0.8620 0.8630 0.8660 0.8720 0.8740
1962.439691 0.8780 0.8790 0.8820 0.8860 0.8900
1966.708343 0.8910 0.8920 0.8950 0.8990 0.9000
1970.976994 0.9000 0.9000 0.9000 0.8990 0.8980
1975.245646 0.8940 0.8910 0.8840 0.8800 0.8750
1979.514297 0.8710 0.8680 0.8520 0.8400 0.8310
1983.782949 0.8200 0.8130 0.8069 0.7920 0.7920
1988.051601 0.7960 0.8000 0.8070 0.8160 0.8320
1992.320252 0.8580 0.8630 0.8710 0.8830 0.8920
1996.588904 0.8980 0.9020 0.9030 0.9060 0.9110
2000.857555 0.9150 0.9190 0.9220 0.9250 0.9310
2005.126207 0.9370 0.9370 0.9370 0.9360 0.9350
2009.394858 0.9350 0.9350 0.9345 0.9340 0.9335
2013.663510 0.9330 0.9330 0.9330 0.9335 0.9340
2017.932161 0.9345 0.9350 0.9350 0.9350 0.9365
2022.200813 0.9380 0.9395 0.9410 0.9420 0.9430
2026.469464 0.9440 0.9450 0.9455 0.9460 0.9460
2030.738116 0.9460 0.9460 0.9460 0.9465 0.9471
2035.006768 0.9506 0.9540 0.9540 0.9540 0.9520
2039.275419 0.9500 0.9495 0.9490 0.9490 0.9490
2043.544071 0.9490 0.9490 0.9495 0.9500 0.9500
2047.812722 0.9500 0.9500 0.9500 0.9500 0.9500
2052.081374 0.9500 0.9500 0.9500 0.9500 0.9500
2056.350025 0.9500 0.9500 0.9500 0.9500 0.9500
2060.618677 0.9500 0.9500 0.9500 0.9500 0.9495
2064.887328 0.9490 0.9490 0.9490 0.9475 0.9460
2069.155980 0.9460 0.9459 0.9440 0.9420 0.9400
2073.424631 0.9379 0.9334 0.9291 0.9336 0.9380
2077.693283 0.9380 0.9380 0.9395 0.9410 0.9420
2081.961934 0.9430 0.9445 0.9460 0.9475 0.9490
2086.230586 0.9490 0.9490 0.9480 0.9470 0.9470
2090.499238 0.9469 0.9444 0.9419 0.9399 0.9379
2094.767889 0.9359 0.9340 0.9335 0.9330 0.9335
2099.036541 0.9341 0.9366 0.9390 0.9405 0.9421
2103.305192 0.9436 0.9450 0.9460 0.9470 0.9470
2107.573844 0.9470 0.9470 0.9470 0.9465 0.9460
2111.842495 0.9460 0.9460 0.9475 0.9490 0.9495
2116.111147 0.9500 0.9500 0.9500 0.9500 0.9500
2120.379798 0.9500 0.9499 0.9484 0.9470 0.9470
2124.648450 0.9470 0.9465 0.9459 0.9444 0.9430
2128.917101 0.9420 0.9409 0.9394 0.9379 0.9359
2133.185753 0.9340 0.9335 0.9329 0.9309 0.9289
2137.454405 0.9274 0.9260 0.9255 0.9250 0.9255
2141.723056 0.9261 0.9276 0.9292 0.9332 0.9370
2145.991708 0.9370 0.9370 0.9380 0.9391 0.9406
2150.260359 0.9420 0.9425 0.9431 0.9451 0.9471
2154.529011 0.9481 0.9490 0.9495 0.9500 0.9500
2158.797662 0.9500 0.9500 0.9500 0.9500 0.9500
2163.066314 0.9500 0.9500 0.9500 0.9500 0.9500
2167.334965 0.9500 0.9495 0.9490 0.9490 0.9489
2171.603617 0.9479 0.9469 0.9459 0.9450 0.9450
2175.872268 0.9449 0.9434 0.9419 0.9399 0.9379
2180.140920 0.9359 0.9339 0.9324 0.9311 0.9321
2184.409571 0.9331 0.9351 0.9370 0.9375 0.9380
2188.678223 0.9380 0.9380 0.9375 0.9369 0.9354
2192.946875 0.9339 0.9319 0.9300 0.9300 0.9301
2197.215526 0.9316 0.9330 0.9335 0.9341 0.9356
2201.484178 0.9371 0.9381 0.9390 0.9385 0.9380
2205.752829 0.9375 0.9369 0.9359 0.9350 0.9350
2210.021481 0.9349 0.9329 0.9309 0.9299 0.9289
2214.290132 0.9274 0.9260 0.9260 0.9260 0.9265
2218.558784 0.9270 0.9270 0.9269 0.9259 0.9248
2222.827435 0.9218 0.9188 0.9163 0.9139 0.9129
2227.096087 0.9121 0.9131 0.9140 0.9140 0.9140
2231.364738 0.9145 0.9151 0.9166 0.9181 0.9196
2235.633390 0.9211 0.9231 0.9251 0.9261 0.9271
2239.902042 0.9281 0.9290 0.9295 0.9300 0.9300
2244.170693 0.9300 0.9300 0.9300 0.9295 0.9289
2248.439345 0.9279 0.9269 0.9259 0.9249 0.9234
2252.707996 0.9220 0.9215 0.9210 0.9210 0.9210
2256.976648 0.9210 0.9210 0.9210 0.9209 0.9199
2261.245299 0.9189 0.9179 0.9168 0.9143 0.9118
2265.513951 0.9098 0.9078 0.9058 0.9038 0.9018
2269.782602 0.8998 0.8978 0.8959 0.8949 0.8940
2274.051254 0.8940 0.8940 0.8940 0.8939 0.8929
2278.319905 0.8920 0.8915 0.8910 0.8910 0.8910
2282.588557 0.8910 0.8910 0.8915 0.8921 0.8936
2286.857208 0.8952 0.8972 0.8992 0.9017 0.9041
2291.125860 0.9051 0.9063 0.9088 0.9111 0.9115
2295.394512 0.9120 0.9120 0.9121 0.9131 0.9140
2299.663163 0.9145 0.9150 0.9150 0.9151 0.9166
2303.931815 0.9181 0.9196 0.9210 0.9215 0.9221
2308.200466 0.9226 0.9231 0.9241 0.9251 0.9261
2312.469118 0.9274 0.9309 0.9341 0.9346 0.9351
2316.737769 0.9361 0.9371 0.9381 0.9391 0.9401
2321.006421 0.9411 0.9421 0.9432 0.9452 0.9472
2325.275072 0.9487 0.9500 0.9500 0.9501 0.9506
2329.543724 0.9511 0.9521 0.9530 0.9530 0.9530
2333.812375 0.9530 0.9531 0.9536 0.9540 0.9540
2338.081027 0.9541 0.9546 0.9550 0.9550 0.9551
2342.349679 0.9561 0.9570 0.9570 0.9570 0.9570
2346.618330 0.9569 0.9559 0.9550 0.9550 0.9550
2350.886982 0.9550 0.9549 0.9544 0.9540 0.9540
2355.155633 0.9541 0.9546 0.9550 0.9550 0.9550
2359.424285 0.9550 0.9550 0.9550 0.9550 0.9550
2363.692936 0.9549 0.9539 0.9529 0.9519 0.9509
2367.961588 0.9504 0.9499 0.9494 0.9488 0.9468
2372.230239 0.9448 0.9428 0.9410 0.9410 0.9408
2376.498891 0.9393 0.9378 0.9363 0.9350 0.9350
2380.767542 0.9349 0.9339 0.9327 0.9307 0.9289
2385.036194 0.9279 0.9269 0.9259 0.9249 0.9239
2389.304846 0.9229 0.9224 0.9221 0.9226 0.9234
2393.573497 0.9264 0.9293 0.9318 0.9342 0.9357
2397.842149 0.9370 0.9370 0.9371 0.9376 0.9381
2402.110800 0.9386 0.9392 0.9407 0.9421 0.9426
2406.379452 0.9431 0.9441 0.9453 0.9473 0.9491
2410.648103 0.9496 0.9501 0.9506 0.9510 0.9510
2414.916755 0.9510 0.9510 0.9510 0.9510 0.9510
2419.185406 0.9510 0.9510 0.9510 0.9510 0.9510
2423.454058 0.9511 0.9521 0.9531 0.9536 0.9540
2427.722709 0.9540 0.9541 0.9546 0.9551 0.9561
2431.991361 0.9570 0.9570 0.9570 0.9570 0.9570
2436.260012 0.9570 0.9571 0.9576 0.9580 0.9580
2440.528664 0.9580 0.9580 0.9580 0.9580 0.9581
2444.797316 0.9586 0.9589 0.9584 0.9580 0.9580
2449.065967 0.9580 0.9580 0.9579 0.9574 0.9569
2453.334619 0.9559 0.9550 0.9550 0.9550 0.9550
2457.603270 0.9549 0.9544 0.9540 0.9540 0.9537
2461.871922 0.9517 0.9500 0.9500 0.9499 0.9494
2466.140573 0.9490 0.9490 0.9491 0.9496 0.9501
2470.409225 0.9506 0.9512 0.9522 0.9531 0.9536
2474.677876 0.9541 0.9546 0.9550 0.9550 0.9550
2478.946528 0.9550 0.9550 0.9550 0.9552 0.9562
2483.215179 0.9570 0.9570 0.9570 0.9570 0.9568
2487.483831 0.9558 0.9550 0.9550 0.9550 0.9550
2491.752483 0.9552 0.9562 0.9571 0.9576 0.9583
2496.021134 0.9598 0.9611 0.9616 0.9621 0.9626
2500.289786 0.9632 0.9642 0.9650 0.9650 0.9651
2504.558437 0.9656 0.9660 0.9660 0.9660 0.9660
2508.827089 0.9660 0.9660 0.9660 0.9660 0.9660
2513.095740 0.9660 0.9660 0.9660 0.9660 0.9660
2517.364392 0.9660 0.9660 0.9660 0.9660 0.9659
2521.633043 0.9654 0.9650 0.9650 0.9650 0.9650
2525.901695 0.9650 0.9650 0.9650 0.9650 0.9650
2530.170346 0.9650 0.9650 0.9650 0.9650 0.9650
2534.438998 0.9650 0.9650 0.9650 0.9650 0.9650
2538.707649 0.9650 0.9650 0.9650 0.9650 0.9650
2542.976301 0.9648 0.9638 0.9630 0.9630 0.9629
2547.244953 0.9624 0.9619 0.9614 0.9608 0.9598
2551.513604 0.9589 0.9584 0.9579 0.9574 0.9570
2555.782256 0.9570 0.9568 0.9558 0.9550 0.9550
2560.050907 0.9549 0.9544 0.9539 0.9534 0.9527
2564.319559 0.9512 0.9499 0.9494 0.9487 0.9472
2568.588210 0.9460 0.9460 0.9453 0.9418 0.9384
2572.856862 0.9354 0.9321 0.9271 0.9229 0.9224
2577.125513 0.9220 0.9220 0.9220 0.9220 0.9221
2581.394165 0.9226 0.9232 0.9242 0.9255 0.9280
2585.662816 0.9305 0.9330 0.9354 0.9374 0.9394
2589.931468 0.9414 0.9434 0.9454 0.9474 0.9494
2594.200120 0.9513 0.9528 0.9541 0.9546 0.9552
2598.468771 0.9562 0.9571 0.9576 0.9580 0.9580
2602.737423 0.9581 0.9586 0.9592 0.9602 0.9610
2607.006074 0.9610 0.9610 0.9610 0.9611 0.9616
2611.274726 0.9620 0.9620 0.9620 0.9620 0.9620
2615.543377 0.9620 0.9620 0.9620 0.9620 0.9620
2619.812029 0.9619 0.9614 0.9608 0.9598 0.9590
2624.080680 0.9590 0.9589 0.9584 0.9579 0.9574
2628.349332 0.9570 0.9570 0.9570 0.9570 0.9568
2632.617983 0.9558 0.9550 0.9550 0.9550 0.9550
2636.886635 0.9549 0.9544 0.9540 0.9540 0.9539
2641.155286 0.9534 0.9528 0.9518 0.9509 0.9504
2645.423938 0.9497 0.9482 0.9469 0.9464 0.9459
2649.692590 0.9454 0.9446 0.9426 0.9406 0.9386
2653.961241 0.9367 0.9352 0.9336 0.9316 0.9290
2658.229893 0.9245 0.9207 0.9192 0.9179 0.9174
2662.498544 0.9167 0.9152 0.9137 0.9122 0.9104
2666.767196 0.9079 0.9055 0.9035 0.9003 0.8928
2671.035847 0.8855 0.8790 0.8719 0.8624 0.8517
2675.304499 0.8367 0.8241 0.8201 0.8168 0.8158
2679.573150 0.8134 0.8059 0.7981 0.7896 0.7809
2683.841802 0.7719 0.7634 0.7564 0.7502 0.7467
2688.110453 0.7433 0.7403 0.7356 0.7251 0.7161
2692.379105 0.7121 0.7081 0.7041 0.7001 0.6961
2696.647757 0.6918 0.6863 0.6820 0.6820 0.6846
2700.916408 0.6956 0.7102 0.7362 0.7616 0.7851
2705.185060 0.8088 0.8333 0.8542 0.8637 0.8723
2709.453711 0.8778 0.8835 0.8900 0.8959 0.8999
2713.722363 0.9036 0.9061 0.9085 0.9105 0.9120
2717.991014 0.9120 0.9120 0.9120 0.9119 0.9114
2722.259666 0.9106 0.9091 0.9078 0.9068 0.9055
2726.528317 0.9035 0.9013 0.8983 0.8959 0.8954
2730.796969 0.8932 0.8857 0.8783 0.8713 0.8632
2735.065620 0.8522 0.8416 0.8321 0.8223 0.8113
2739.334272 0.7990 0.7831 0.7685 0.7585 0.7503
2743.602924 0.7473 0.7444 0.7419 0.7387 0.7332
2747.871575 0.7270 0.7185 0.7093 0.6982 0.6874
2752.140227 0.6774 0.6676 0.6581 0.6507 0.6497
2756.408878 0.6493 0.6503 0.6536 0.6641 0.6748
2760.677530 0.6857 0.6977 0.7127 0.7262 0.7352
2764.946181 0.7441 0.7526 0.7595 0.7615 0.7646
2769.214833 0.7706 0.7787 0.7927 0.8082 0.8282
2773.483484 0.8436 0.8461 0.8510 0.8625 0.8710
2777.752136 0.8710 0.8715 0.8735 0.8755 0.8775
2782.020787 0.8796 0.8821 0.8844 0.8859 0.8871
2786.289439 0.8876 0.8879 0.8874 0.8869 0.8864
2790.558090 0.8856 0.8841 0.8825 0.8805 0.8783
2794.826742 0.8758 0.8737 0.8727 0.8719 0.8714
2799.095394 0.8698 0.8653 0.8606 0.8550 0.8495
2803.364045 0.8440 0.8385 0.8330 0.8272 0.8207
2807.632697 0.8153 0.8128 0.8080 0.7970 0.7858
2811.901348 0.7738 0.7642 0.7612 0.7577 0.7527
2816.170000 0.7481 0.7446 0.7417 0.7407 0.7372
2820.438651 0.7272 0.7164 0.7034 0.6911 0.6806
2824.707303 0.6694 0.6564 0.6399 0.6139 0.5906
2828.975954 0.5746 0.5576 0.5376 0.5176 0.4976
2833.244606 0.4778 0.4583 0.4386 0.4184 0.4019
2837.513257 0.3944 0.3863 0.3768 0.3622 0.3347
2841.781909 0.3050 0.2695 0.2415 0.2325 0.2235
2846.050561 0.2145 0.1990 0.1665 0.1376 0.1181
2850.319212 0.1003 0.0868 0.0731 0.0590 0.0461
2854.587864 0.0361 0.0261 0.0161 0.0089 0.0084
2858.856515 0.0080 0.0080 0.0081 0.0086 0.0091
2863.125167 0.0096 0.0104 0.0119 0.0134 0.0149
2867.393818 0.0174 0.0224 0.0394 0.0873 0.1289
2871.662470 0.1554 0.1875 0.2329 0.2668 0.2728
2875.931121 0.2871 0.3216 0.3495 0.3615 0.3717
2880.199773 0.3777 0.3829 0.3859 0.3772 0.3397
2884.468424 0.3037 0.2712 0.2440 0.2298 0.2158
2888.737076 0.2018 0.1876 0.1731 0.1555 0.1305
2893.005727 0.1057 0.0812 0.0643 0.0653 0.0759
2897.274379 0.1094 0.1404 0.1653 0.1878 0.2043
2901.543031 0.2159 0.2154 0.2128 0.2052 0.1992
2905.811682 0.1967 0.1918 0.1813 0.1706 0.1596
2910.080334 0.1488 0.1383 0.1277 0.1167 0.1075
2914.348985 0.1025 0.0973 0.0918 0.0823 0.0633
2918.617637 0.0500 0.0500 0.0575 0.0827 0.1030
2922.886288 0.1125 0.1237 0.1387 0.1566 0.1811
2927.154940 0.2037 0.2222 0.2427 0.2677 0.2942
2931.423591 0.3242 0.3485 0.3600 0.3730 0.3895
2935.692243 0.4022 0.4062 0.4095 0.4110 0.4117
2939.960894 0.4107 0.4087 0.4047 0.4012 0.3987
2944.229546 0.3965 0.3950 0.3896 0.3756 0.3608
2948.498198 0.3443 0.3217 0.2858 0.2509 0.2184
2952.766849 0.1879 0.1619 0.1384 0.1202 0.1067
2957.035501 0.1027 0.0987 0.0947 0.0857 0.0662
2961.304152 0.0472 0.0292 0.0168 0.0163 0.0157
2965.572804 0.0147 0.0140 0.0140 0.0140 0.0140
2969.841455 0.0143 0.0153 0.0166 0.0187 0.0207
2974.110107 0.0227 0.0261 0.0326 0.0391 0.0456
2978.378758 0.0523 0.0593 0.0821 0.1376 0.1839
2982.647410 0.2114 0.2378 0.2618 0.2786 0.2806
2986.916061 0.2920 0.3229 0.3551 0.3899 0.4243
2991.184713 0.4578 0.4884 0.5134 0.5375 0.5600
2995.453364 0.5783 0.5883 0.6000 0.6150 0.6323
2999.722016 0.6543 0.6751 0.6936 0.7098 0.7213
3003.990668 0.7339 0.7489 0.7626 0.7737 0.7831
3008.259319 0.7891 0.7961 0.8051 0.8132 0.8197
3012.527971 0.8260 0.8320 0.8385 0.8460 0.8517
3016.796622 0.8537 0.8570 0.8630 0.8682 0.8717
3021.065274 0.8750 0.8780 0.8812 0.8847 0.8882
3025.333925 0.8917 0.8942 0.8947 0.8962 0.8997
3029.602577 0.9029 0.9054 0.9079 0.9104 0.9123
3033.871228 0.9133 0.9145 0.9160 0.9172 0.9177
3038.139880 0.9187 0.9207 0.9225 0.9240 0.9254
3042.408531 0.9264 0.9275 0.9290 0.9305 0.9320
3046.677183 0.9332 0.9337 0.9342 0.9347 0.9355
3050.945835 0.9370 0.9382 0.9387 0.9393 0.9403
3055.214486 0.9412 0.9417 0.9422 0.9427 0.9434
3059.483138 0.9444 0.9452 0.9457 0.9460 0.9460
3063.751789 0.9465 0.9480 0.9490 0.9490 0.9492
3068.020441 0.9497 0.9500 0.9500 0.9505 0.9520
3072.289092 0.9532 0.9537 0.9540 0.9540 0.9540
3076.557744 0.9540 0.9540 0.9540 0.9542 0.9547
3080.826395 0.9550 0.9550 0.9550 0.9550 0.9554
3085.095047 0.9564 0.9570 0.9570 0.9570 0.9570
3089.363698 0.9570 0.9570 0.9570 0.9570 0.9570
3093.632350 0.9570 0.9572 0.9577 0.9580 0.9580
3097.901002 0.9580 0.9580 0.9580 0.9580 0.9580
3102.169653 0.9580 0.9580 0.9580 0.9580 0.9580
3106.438305 0.9580 0.9580 0.9578 0.9573 0.9570
3110.706956 0.9570 0.9566 0.9556 0.9550 0.9550
3114.975608 0.9550 0.9550 0.9550 0.9550 0.9548
3119.244259 0.9543 0.9540 0.9540 0.9540 0.9540
3123.512911 0.9540 0.9540 0.9540 0.9540 0.9540
3127.781562 0.9540 0.9540 0.9540 0.9540 0.9540
3132.050214 0.9540 0.9540 0.9542 0.9547 0.9550
3136.318865 0.9550 0.9550 0.9550 0.9550 0.9550
3140.587517 0.9554 0.9564 0.9572 0.9577 0.9580
3144.856168 0.9580 0.9580 0.9580 0.9586 0.9601
3149.124820 0.9610 0.9610 0.9612 0.9617 0.9620
3153.393472 0.9620 0.9620 0.9620 0.9620 0.9620
3157.662123 0.9618 0.9613 0.9610 0.9610 0.9610
3161.930775 0.9610 0.9610 0.9610 0.9610 0.9610
3166.199426 0.9610 0.9610 0.9610 0.9610 0.9606
3170.468078 0.9596 0.9590 0.9590 0.9590 0.9590
3174.736729 0.9590 0.9590 0.9590 0.9590 0.9590
3179.005381 0.9590 0.9594 0.9604 0.9612 0.9617
3183.274032 0.9622 0.9627 0.9630 0.9630 0.9630
3187.542684 0.9630 0.9634 0.9644 0.9652 0.9657
3191.811335 0.9660 0.9660 0.9662 0.9667 0.9674
3196.079987 0.9684 0.9690 0.9690 0.9690 0.9690
3200.348639 0.9690 0.9690 0.9690 0.9690 0.9690
3204.617290 0.9690 0.9690 0.9690 0.9690 0.9690
3208.885942 0.9686 0.9676 0.9670 0.9670 0.9670
3213.154593 0.9670 0.9668 0.9663 0.9660 0.9660
3217.423245 0.9658 0.9653 0.9650 0.9650 0.9646
3221.691896 0.9636 0.9630 0.9630 0.9630 0.9630
3225.960548 0.9630 0.9630 0.9630 0.9630 0.9630
3230.229199 0.9630 0.9634 0.9644 0.9650 0.9650
3234.497851 0.9652 0.9657 0.9660 0.9660 0.9660
3238.766502 0.9660 0.9662 0.9667 0.9674 0.9684
3243.035154 0.9692 0.9697 0.9702 0.9707 0.9710
3247.303805 0.9710 0.9710 0.9710 0.9714 0.9724
3251.572457 0.9732 0.9737 0.9740 0.9740 0.9740
3255.841109 0.9740 0.9740 0.9740 0.9740 0.9740
3260.109760 0.9740 0.9740 0.9740 0.9740 0.9740
3264.378412 0.9740 0.9740 0.9740 0.9740 0.9740
3268.647063 0.9740 0.9740 0.9740 0.9740 0.9740
3272.915715 0.9740 0.9740 0.9740 0.9740 0.9740
3277.184366 0.9742 0.9747 0.9750 0.9750 0.9750
3281.453018 0.9750 0.9754 0.9764 0.9770 0.9770
3285.721669 0.9772 0.9777 0.9780 0.9780 0.9780
3289.990321 0.9780 0.9780 0.9780 0.9780 0.9780
3294.258972 0.9780 0.9780 0.9780 0.9780 0.9780
3298.527624 0.9780 0.9782 0.9787 0.9790 0.9790
3302.796276 0.9790 0.9790 0.9790 0.9790 0.9790
3307.064927 0.9790 0.9790 0.9790 0.9790 0.9790
3311.333579 0.9790 0.9790 0.9790 0.9790 0.9790
3315.602230 0.9790 0.9790 0.9790 0.9790 0.9790
3319.870882 0.9794 0.9804 0.9810 0.9810 0.9806
3324.139533 0.9796 0.9790 0.9790 0.9790 0.9790
3328.408185 0.9790 0.9790 0.9790 0.9790 0.9790
3332.676836 0.9790 0.9790 0.9790 0.9790 0.9790
3336.945488 0.9790 0.9790 0.9790 0.9790 0.9790
3341.214139 0.9790 0.9790 0.9790 0.9794 0.9804
3345.482791 0.9812 0.9817 0.9820 0.9820 0.9820
3349.751442 0.9820 0.9822 0.9827 0.9830 0.9830
3354.020094 0.9830 0.9830 0.9830 0.9830 0.9830
3358.288746 0.9830 0.9830 0.9830 0.9828 0.9823
3362.557397 0.9820 0.9820 0.9820 0.9820 0.9820
3366.826049 0.9820 0.9820 0.9820 0.9818 0.9813
3371.094700 0.9805 0.9795 0.9788 0.9783 0.9780
3375.363352 0.9780 0.9778 0.9773 0.9770 0.9770
3379.632003 0.9765 0.9755 0.9748 0.9743 0.9740
3383.900655 0.9740 0.9740 0.9740 0.9740 0.9740
3388.169306 0.9742 0.9747 0.9755 0.9765 0.9770
3392.437958 0.9770 0.9770 0.9770 0.9772 0.9777
3396.706609 0.9780 0.9780 0.9780 0.9780 0.9782
3400.975261 0.9787 0.9795 0.9805 0.9812 0.9817
3405.243913 0.9820 0.9820 0.9822 0.9827 0.9830
3409.512564 0.9830 0.9835 0.9845 0.9852 0.9857
3413.781216 0.9862 0.9867 0.9870 0.9870 0.9870
3418.049867 0.9870 0.9870 0.9870 0.9870 0.9870
3422.318519 0.9870 0.9870 0.9870 0.9870 0.9870
3426.587170 0.9870 0.9870 0.9870 0.9870 0.9870
3430.855822 0.9870 0.9870 0.9870 0.9870 0.9870
3435.124473 0.9870 0.9870 0.9870 0.9868 0.9863
3439.393125 0.9860 0.9860 0.9858 0.9853 0.9845
3443.661776 0.9835 0.9830 0.9830 0.9830 0.9830
3447.930428 0.9828 0.9823 0.9818 0.9813 0.9810
3452.199079 0.9810 0.9810 0.9810 0.9810 0.9810
3456.467731 0.9810 0.9810 0.9812 0.9817 0.9820
3460.736383 0.9820 0.9820 0.9820 0.9822 0.9827
3465.005034 0.9830 0.9830 0.9830 0.9830 0.9830
3469.273686 0.9830 0.9835 0.9845 0.9850 0.9850
3473.542337 0.9850 0.9850 0.9845 0.9835 0.9830
3477.810989 0.9830 0.9828 0.9823 0.9820 0.9820
3482.079640 0.9818 0.9813 0.9810 0.9810 0.9805
3486.348292 0.9795 0.9790 0.9790 0.9790 0.9790
3490.616943 0.9788 0.9783 0.9780 0.9780 0.9780
3494.885595 0.9780 0.9780 0.9780 0.9778 0.9773
3499.154246 0.9770 0.9770 0.9770 0.9770 0.9765
3503.422898 0.9755 0.9750 0.9750 0.9750 0.9750
3507.691550 0.9750 0.9750 0.9750 0.9750 0.9755
3511.960201 0.9765 0.9770 0.9770 0.9770 0.9770
3516.228853 0.9772 0.9777 0.9783 0.9788 0.9790
3520.497504 0.9790 0.9795 0.9805 0.9813 0.9818
3524.766156 0.9820 0.9820 0.9823 0.9828 0.9830
3529.034807 0.9830 0.9830 0.9830 0.9835 0.9845
3533.303459 0.9853 0.9858 0.9863 0.9868 0.9870
3537.572110 0.9870 0.9870 0.9870 0.9875 0.9885
3541.840762 0.9893 0.9898 0.9903 0.9908 0.9910
3546.109413 0.9910 0.9910 0.9910 0.9915 0.9925
3550.378065 0.9933 0.9938 0.9943 0.9948 0.9950
3554.646717 0.9950 0.9950 0.9950 0.9947 0.9942
3558.915368 0.9940 0.9940 0.9940 0.9940 0.9940
3563.184020 0.9940 0.9940 0.9940 0.9937 0.9932
3567.452671 0.9925 0.9915 0.9910 0.9910 0.9899
3571.721323 0.9879 0.9867 0.9862 0.9857 0.9852
3575.989974 0.9850 0.9850 0.9850 0.9850 0.9853
3580.258626 0.9858 0.9881 0.9921 0.9943 0.9948
3584.527277 0.9955 0.9965 0.9973 0.9978 0.9988
3588.795929 1.0003 1.0010 1.0010 1.0013 1.0018
3593.064580 1.0025 1.0035 1.0043 1.0048 1.0050
3597.333232 1.0050 1.0047 1.0042 1.0040 1.0040
3601.601883 1.0040 1.0040 1.0040 1.0040 1.0040
3605.870535 1.0040 1.0040 1.0040 1.0035 1.0025
3610.139187 1.0020 1.0020 1.0020 1.0020 1.0020
3614.407838 1.0020 1.0020 1.0020 1.0020 1.0020
3618.676490 1.0025 1.0035 1.0043 1.0048 1.0053
3622.945141 1.0058 1.0066 1.0075 1.0080 1.0080
3627.213793 1.0075 1.0065 1.0055 1.0045 1.0040
3631.482444 1.0040 1.0035 1.0025 1.0020 1.0020
3635.751096 1.0031 1.0051 1.0068 1.0083 1.0093
3640.019747 1.0098 1.0100 1.0100 1.0100 1.0100
3644.288399 1.0100 1.0100 1.0095 1.0085 1.0080
3648.557050 1.0080 1.0080 1.0080 1.0080 1.0080
3652.825702 1.0080 1.0080 1.0080 1.0080 1.0080
3657.094354 1.0080 1.0083 1.0088 1.0093 1.0098
3661.363005 1.0100 1.0100 1.0097 1.0092 1.0090
3665.631657 1.0090 1.0087 1.0082 1.0069 1.0049
3669.900308 1.0032 1.0017 1.0007 1.0002 0.9991
3674.168960 0.9977 0.9962 0.9947 0.9937 0.9932
3678.437611 0.9924 0.9914 0.9910 0.9910 0.9916
3682.706263 0.9926 0.9930 0.9930 0.9933 0.9938
3686.974914 0.9940 0.9940 0.9943 0.9948 0.9950
3691.243566 0.9950 0.9967 0.9997 1.0013 1.0018
3695.512217 1.0026 1.0036 1.0043 1.0048 1.0053
3699.780869 1.0058 1.0060 1.0060 1.0066 1.0076
3704.049520 1.0080 1.0080 1.0080 1.0080 1.0083
3708.318172 1.0088 1.0090 1.0090 1.0090 1.0090
3712.586824 1.0090 1.0090 1.0090 1.0090 1.0090
3716.855475 1.0090 1.0087 1.0082 1.0080 1.0080
3721.124127 1.0080 1.0080 1.0080 1.0080 1.0074
3725.392778 1.0064 1.0054 1.0044 1.0034 1.0024
3729.661430 1.0017 1.0012 1.0013 1.0018 1.0029
3733.930081 1.0044 1.0050 1.0050 1.0059 1.0074
3738.198733 1.0083 1.0088 1.0090 1.0090 1.0087
3742.467384 1.0082 1.0071 1.0056 1.0050 1.0050
3746.736036 1.0059 1.0074 1.0083 1.0088 1.0090
3751.004687 1.0090 1.0090 1.0090 1.0090 1.0090
3755.273339 1.0090 1.0090 1.0087 1.0082 1.0080
3759.541991 1.0080 1.0074 1.0064 1.0060 1.0060
3763.810642 1.0060 1.0060 1.0060 1.0060 1.0060
3768.079294 1.0060 1.0060 1.0060 1.0057 1.0052
3772.347945 1.0047 1.0042 1.0040 1.0040 1.0040
3776.616597 1.0040 1.0034 1.0024 1.0020 1.0020
3780.885248 1.0017 1.0012 1.0010 1.0010 1.0010
3785.153900 1.0010 1.0010 1.0010 1.0010 1.0010
3789.422551 1.0010 1.0010 1.0010 1.0010 1.0010
3793.691203 1.0010 1.0010 1.0010
##END=
