##TITLE=p-DIOXANE
##JCAMP-DX=4.24
##DATA TYPE=INFRARED SPECTRUM
##CLASS=COBLENTZ III
##ORIGIN=WESTERN REGIONAL RES. USDA
##OWNER=COBLENTZ SOCIETY
Collection (C) 2007 copyright by the U.S. Secretary of Commerce
on behalf of the United States of America. All rights reserved.
##DATE=1964/06/01
##NAMES=1,4-dioxane
##CAS REGISTRY NO=123-91-1
##MOLFORM=C4H8O2
##SOURCE REFERENCE=COBLENTZ NO. 6187
##$NIST SOURCE=COBLENTZ
##$NIST IMAGE=cob6187
##SPECTROMETER/DATA SYSTEM=BECKMAN IR-7 (GRATING)
##INSTRUMENT PARAMETERS=GRATING CHANGES AT 3000, 2200, 1150 CM^-^1
##STATE=SOLUTION (10% IN CCl4 FOR 4000-1330 CM^-^1, 10% IN CS2 FOR 1330-600 CM^-^1)
##PATH LENGTH=0.011 CM, 0.010 CM
$$SPECTRAL CONTAMINATION DUE TO CCl4 AROUND 1550 CM^-^1
##SAMPLING PROCEDURE=TRANSMISSION
##RESOLUTION=4
##DATA PROCESSING=DIGITIZED BY NIST FROM HARD COPY (FROM TWO SEGMENTS)
##XUNITS=1/CM
##YUNITS=TRANSMITTANCE
##XFACTOR=1.000000
##YFACTOR=1
##DELTAX=0.648749
##FIRSTX=597.405
##LASTX=3978.04
##FIRSTY=0.693
##MAXX=3978.04
##MINX=597.405
##MAXY=0.836
##MINY=0
##NPOINTS=5212
##XYDATA=(X++(Y..Y))
597.405000 0.6930 0.6920 0.6910 0.6900 0.6890
600.648744 0.6930 0.6920 0.6910 0.6900 0.6890
603.892489 0.6860 0.6840 0.6790 0.6740 0.6720
607.136233 0.6670 0.6560 0.5933 0.5552 0.5152
610.379978 0.4390 0.4050 0.3750 0.3520 0.2731
613.623722 0.2690 0.2680 0.2680 0.2700 0.2929
616.867467 0.3040 0.3160 0.3390 0.3620 0.3630
620.111211 0.3630 0.3979 0.4269 0.4549 0.5188
623.354956 0.5760 0.5940 0.6120 0.6300 0.6470
626.598700 0.6620 0.6750 0.6860 0.6960 0.7050
629.842444 0.7130 0.7200 0.7250 0.7310 0.7360
633.086189 0.7410 0.7460 0.7490 0.7500 0.7530
636.329933 0.7550 0.7570 0.7590 0.7600 0.7610
639.573678 0.7630 0.7630 0.7640 0.7640 0.7650
642.817422 0.7650 0.7650 0.7650 0.7650 0.7640
646.061167 0.7630 0.7630 0.7630 0.7620 0.7610
649.304911 0.7590 0.7580 0.7560 0.7540 0.7500
652.548656 0.7470 0.7470 0.7460 0.7460 0.7460
655.792400 0.7460 0.7470 0.7470 0.7500 0.7510
659.036144 0.7520 0.7550 0.7580 0.7620 0.7650
662.279889 0.7680 0.7720 0.7740 0.7760 0.7790
665.523633 0.7790 0.7820 0.7830 0.7830 0.7830
668.767378 0.7830 0.7830 0.7830 0.7830 0.7830
672.011122 0.7830 0.7820 0.7810 0.7800 0.7790
675.254867 0.7780 0.7780 0.7790 0.7790 0.7810
678.498611 0.7810 0.7830 0.7860 0.7890 0.7920
681.742356 0.7950 0.7970 0.7990 0.8020 0.8030
684.986100 0.8040 0.8040 0.8060 0.8060 0.8070
688.229844 0.8070 0.8070 0.8070 0.8070 0.8070
691.473589 0.8070 0.8070 0.8080 0.8080 0.8080
694.717333 0.8080 0.8090 0.8100 0.8110 0.8110
697.961078 0.8120 0.8120 0.8130 0.8130 0.8130
701.204822 0.8130 0.8130 0.8130 0.8130 0.8130
704.448567 0.8130 0.8120 0.8110 0.8110 0.8110
707.692311 0.8100 0.8100 0.8100 0.8100 0.8110
710.936056 0.8130 0.8150 0.8160 0.8160 0.8170
714.179800 0.8170 0.8170 0.8170 0.8180 0.8180
717.423544 0.8190 0.8190 0.8200 0.8200 0.8220
720.667289 0.8220 0.8240 0.8240 0.8240 0.8240
723.911033 0.8240 0.8240 0.8250 0.8250 0.8250
727.154778 0.8250 0.8250 0.8260 0.8260 0.8260
730.398522 0.8260 0.8260 0.8260 0.8260 0.8260
733.642267 0.8260 0.8260 0.8260 0.8250 0.8250
736.886011 0.8250 0.8250 0.8240 0.8240 0.8230
740.129756 0.8220 0.8200 0.8190 0.8180 0.8180
743.373500 0.8180 0.8180 0.8180 0.8190 0.8200
746.617244 0.8200 0.8200 0.8210 0.8220 0.8240
749.860989 0.8240 0.8250 0.8260 0.8270 0.8270
753.104733 0.8270 0.8280 0.8290 0.8290 0.8290
756.348478 0.8290 0.8290 0.8300 0.8310 0.8310
759.592222 0.8310 0.8310 0.8310 0.8310 0.8310
762.835967 0.8310 0.8310 0.8290 0.8290 0.8280
766.079711 0.8270 0.8260 0.8250 0.8240 0.8200
769.323456 0.8190 0.8190 0.8200 0.8220 0.8220
772.567200 0.8260 0.8260 0.8270 0.8270 0.8270
775.810944 0.8270 0.8280 0.8280 0.8280 0.8280
779.054689 0.8280 0.8280 0.8270 0.8270 0.8270
782.298433 0.8270 0.8260 0.8260 0.8250 0.8240
785.542178 0.8240 0.8240 0.8230 0.8220 0.8220
788.785922 0.8220 0.8210 0.8200 0.8200 0.8200
792.029667 0.8190 0.8180 0.8180 0.8190 0.8190
795.273411 0.8200 0.8200 0.8210 0.8220 0.8220
798.517156 0.8220 0.8220 0.8220 0.8220 0.8230
801.760900 0.8220 0.8220 0.8220 0.8220 0.8210
805.004644 0.8210 0.8200 0.8200 0.8200 0.8190
808.248389 0.8180 0.8180 0.8180 0.8170 0.8170
811.492133 0.8170 0.8160 0.8150 0.8150 0.8150
814.735878 0.8140 0.8140 0.8130 0.8130 0.8120
817.979622 0.8100 0.8080 0.8060 0.8050 0.8040
821.223367 0.8020 0.8010 0.8000 0.7990 0.7980
824.467111 0.7970 0.7950 0.7940 0.7920 0.7900
827.710856 0.7880 0.7860 0.7830 0.7790 0.7760
830.954600 0.7720 0.7670 0.7620 0.7560 0.7560
834.198344 0.7540 0.7530 0.7490 0.7450 0.7420
837.442089 0.7380 0.7340 0.7300 0.7250 0.7200
840.685833 0.7150 0.7090 0.7030 0.6970 0.6900
843.929578 0.6840 0.6760 0.6690 0.6610 0.6540
847.173322 0.6450 0.6370 0.6231 0.5981 0.5890
850.417067 0.5800 0.5730 0.5660 0.5590 0.5530
853.660811 0.5470 0.5410 0.5350 0.5280 0.5210
856.904556 0.5120 0.5030 0.4920 0.4800 0.4660
860.148300 0.4331 0.4121 0.3901 0.3641 0.3351
863.392045 0.2650 0.2320 0.2000 0.1431 0.1160
866.635789 0.0931 0.0711 0.0511 0.0351 0.0211
869.879533 0.0100 0.0000 0.0000 0.0000 0.0000
873.123278 0.0000 0.0000 0.0000 0.0000 0.0010
876.367022 0.0100 0.0160 0.0270 0.0350 0.0430
879.610767 0.0500 0.0510 0.0510 0.0490 0.0450
882.854511 0.0370 0.0300 0.0280 0.0290 0.0420
886.098256 0.0550 0.0640 0.0670 0.1119 0.1349
889.342000 0.1570 0.2560 0.2970 0.3379 0.4059
892.585745 0.4349 0.4619 0.5069 0.5429 0.5699
895.829489 0.5930 0.6020 0.6110 0.6270 0.6420
899.073233 0.6580 0.6770 0.6840 0.6860 0.6870
902.316978 0.6940 0.7000 0.7070 0.7140 0.7190
905.560722 0.7210 0.7260 0.7330 0.7390 0.7440
908.804467 0.7490 0.7520 0.7540 0.7580 0.7610
912.048211 0.7650 0.7670 0.7690 0.7700 0.7700
915.291956 0.7730 0.7750 0.7770 0.7790 0.7810
918.535700 0.7820 0.7830 0.7840 0.7850 0.7860
921.779445 0.7860 0.7870 0.7880 0.7880 0.7890
925.023189 0.7910 0.7920 0.7930 0.7950 0.7960
928.266933 0.7980 0.7990 0.8010 0.8020 0.8040
931.510678 0.8050 0.8070 0.8080 0.8100 0.8110
934.754422 0.8120 0.8130 0.8140 0.8150 0.8150
937.998167 0.8160 0.8170 0.8170 0.8170 0.8170
941.241911 0.8180 0.8180 0.8180 0.8190 0.8190
944.485656 0.8190 0.8190 0.8190 0.8200 0.8200
947.729400 0.8200 0.8200 0.8210 0.8210 0.8220
950.973145 0.8220 0.8220 0.8220 0.8230 0.8230
954.216889 0.8240 0.8240 0.8240 0.8240 0.8250
957.460633 0.8250 0.8260 0.8260 0.8270 0.8280
960.704378 0.8290 0.8290 0.8300 0.8310 0.8310
963.948122 0.8320 0.8330 0.8330 0.8330 0.8340
967.191867 0.8340 0.8340 0.8350 0.8350 0.8350
970.435611 0.8350 0.8350 0.8350 0.8350 0.8360
973.679356 0.8360 0.8360 0.8360 0.8360 0.8360
976.923100 0.8360 0.8350 0.8350 0.8350 0.8350
980.166845 0.8340 0.8340 0.8330 0.8330 0.8320
983.410589 0.8320 0.8310 0.8310 0.8310 0.8300
986.654333 0.8290 0.8290 0.8290 0.8290 0.8280
989.898078 0.8280 0.8270 0.8260 0.8240 0.8230
993.141822 0.8230 0.8220 0.8220 0.8220 0.8210
996.385567 0.8200 0.8200 0.8190 0.8180 0.8180
999.629311 0.8180 0.8150 0.8130 0.8110 0.8090
1002.873056 0.8070 0.8060 0.8040 0.8020 0.8010
1006.116800 0.8000 0.7990 0.7970 0.7960 0.7950
1009.360545 0.7930 0.7920 0.7890 0.7870 0.7840
1012.604289 0.7830 0.7830 0.7820 0.7810 0.7810
1015.848033 0.7810 0.7810 0.7810 0.7800 0.7800
1019.091778 0.7800 0.7790 0.7790 0.7790 0.7780
1022.335522 0.7770 0.7760 0.7750 0.7720 0.7700
1025.579267 0.7680 0.7650 0.7620 0.7590 0.7560
1028.823011 0.7480 0.7440 0.7400 0.7350 0.7300
1032.066756 0.7250 0.7200 0.7140 0.7060 0.7000
1035.310500 0.6940 0.6880 0.6810 0.6720 0.6591
1038.554245 0.6400 0.5860 0.5460 0.4980 0.4391
1041.797989 0.4150 0.3970 0.3791 0.3621 0.3441
1045.041733 0.3260 0.2900 0.2740 0.2740 0.3019
1048.285478 0.3309 0.3878 0.3970 0.4289 0.4579
1051.529222 0.4870 0.5340 0.5710 0.5860 0.6010
1054.772967 0.6230 0.6400 0.6520 0.6590 0.6640
1058.016711 0.6670 0.6700 0.6720 0.6750 0.6810
1061.260456 0.6820 0.6820 0.6820 0.6820 0.6810
1064.504200 0.6770 0.6730 0.6690 0.6640 0.6590
1067.747945 0.6540 0.6480 0.6430 0.6390 0.6231
1070.991689 0.5980 0.5860 0.5720 0.5550 0.5340
1074.235433 0.5061 0.4013 0.3442 0.3201 0.2682
1077.479178 0.2360 0.2030 0.1810 0.1261 0.1230
1080.722922 0.1260 0.1440 0.1609 0.1999 0.2229
1083.966667 0.2450 0.2790 0.3000 0.3210 0.3559
1087.210411 0.3849 0.4039 0.4189 0.4359 0.4460
1090.454156 0.4550 0.4550 0.4550 0.4550 0.4410
1093.697900 0.4400 0.4360 0.4290 0.4190 0.4070
1096.941645 0.3940 0.3790 0.3630 0.3470 0.3310
1100.185389 0.3150 0.2861 0.2730 0.2620 0.2560
1103.429133 0.2470 0.2340 0.2210 0.2050 0.1880
1106.672878 0.1700 0.1321 0.1131 0.0941 0.0771
1109.916622 0.0600 0.0460 0.0330 0.0220 0.0080
1113.160367 0.0050 0.0030 0.0010 0.0010 0.0000
1116.404111 0.0000 0.0000 0.0000 0.0000 0.0000
1119.647856 0.0000 0.0000 0.0000 0.0000 0.0000
1122.891600 0.0000 0.0000 0.0000 0.0000 0.0000
1126.135345 0.0000 0.0000 0.0000 0.0000 0.0000
1129.379089 0.0050 0.0150 0.0260 0.0410 0.0600
1132.622833 0.0810 0.1039 0.1299 0.1439 0.1569
1135.866578 0.1860 0.2150 0.2450 0.2749 0.2900
1139.110322 0.3040 0.3329 0.3599 0.3849 0.4079
1142.354067 0.4280 0.4460 0.4530 0.4590 0.4720
1145.597811 0.4840 0.4960 0.5060 0.5160 0.5260
1148.841556 0.5350 0.5430 0.5510 0.5590 0.5660
1152.085300 0.5710 0.5780 0.5830 0.5880 0.5930
1155.329045 0.5970 0.5990 0.6010 0.6050 0.6080
1158.572789 0.6110 0.6140 0.6160 0.6180 0.6200
1161.816533 0.6220 0.6240 0.6250 0.6270 0.6280
1165.060278 0.6290 0.6300 0.6310 0.6320 0.6360
1168.304022 0.6370 0.6390 0.6430 0.6440 0.6460
1171.547767 0.6500 0.6530 0.6570 0.6620 0.6660
1174.791511 0.6710 0.6750 0.6790 0.6830 0.6860
1178.035256 0.6920 0.6930 0.6980 0.7020 0.7060
1181.279000 0.7090 0.7110 0.7130 0.7150 0.7160
1184.522745 0.7180 0.7180 0.7200 0.7210 0.7230
1187.766489 0.7240 0.7260 0.7270 0.7280 0.7290
1191.010233 0.7340 0.7380 0.7400 0.7430 0.7440
1194.253978 0.7450 0.7460 0.7470 0.7470 0.7480
1197.497722 0.7490 0.7500 0.7500 0.7520 0.7540
1200.741467 0.7560 0.7560 0.7560 0.7570 0.7570
1203.985211 0.7570 0.7560 0.7560 0.7550 0.7550
1207.228956 0.7540 0.7520 0.7490 0.7470 0.7450
1210.472700 0.7440 0.7430 0.7410 0.7400 0.7400
1213.716445 0.7390 0.7390 0.7390 0.7400 0.7410
1216.960189 0.7410 0.7430 0.7440 0.7450 0.7450
1220.203933 0.7460 0.7470 0.7490 0.7490 0.7490
1223.447678 0.7490 0.7480 0.7470 0.7470 0.7450
1226.691422 0.7420 0.7400 0.7380 0.7360 0.7350
1229.935167 0.7320 0.7300 0.7250 0.7200 0.7170
1233.178911 0.7150 0.7130 0.7100 0.7070 0.7040
1236.422656 0.7000 0.6960 0.6900 0.6840 0.6770
1239.666400 0.6680 0.6580 0.6460 0.5980 0.5700
1242.910145 0.5480 0.5260 0.5031 0.4442 0.4002
1246.153889 0.2720 0.1141 0.1070 0.0890 0.0710
1249.397633 0.0530 0.0351 0.0181 0.0180 0.0299
1252.641378 0.0590 0.0800 0.1010 0.1200 0.1390
1255.885122 0.1670 0.1949 0.2628 0.2949 0.3279
1259.128867 0.3880 0.4420 0.4640 0.4850 0.5169
1262.372611 0.5340 0.5340 0.5460 0.5580 0.5680
1265.616356 0.5770 0.5860 0.5930 0.6000 0.6020
1268.860100 0.6050 0.6090 0.6130 0.6160 0.6170
1272.103845 0.6210 0.6220 0.6220 0.6210 0.6210
1275.347589 0.6140 0.6090 0.6060 0.5970 0.5890
1278.591333 0.5770 0.5590 0.5340 0.5000 0.4111
1281.835078 0.4030 0.3970 0.3781 0.3591 0.3391
1285.078822 0.3200 0.2840 0.2660 0.2650 0.2660
1288.322567 0.2879 0.3089 0.3309 0.3529 0.3759
1291.566311 0.3850 0.3940 0.4170 0.4370 0.4460
1294.810056 0.4550 0.4690 0.4830 0.4970 0.5100
1298.053800 0.5240 0.5390 0.5550 0.5740 0.5950
1301.297545 0.6010 0.6060 0.6160 0.6250 0.6320
1304.541289 0.6380 0.6450 0.6490 0.6540 0.6580
1307.785033 0.6620 0.6650 0.6680 0.6720 0.6750
1311.028778 0.6790 0.6830 0.6880 0.6930 0.6930
1314.272522 0.6930 0.6940 0.6940 0.6930 0.6930
1317.516267 0.6890 0.6860 0.6830 0.6790 0.6730
1320.760011 0.6640 0.6610 0.6590 0.6600 0.6640
1324.003756 0.6660 0.6740 0.6820 0.6890 0.6910
1327.247500 0.6950 0.7020 0.7070 0.7120 0.7150
1330.491245 0.7170 0.7190 0.7210 0.7220 0.7240
1333.734989 0.7240 0.7240 0.7250 0.7250 0.7260
1336.978733 0.7270 0.7270 0.7280 0.7290 0.7290
1340.222478 0.7300 0.7300 0.7300 0.7290 0.7290
1343.466222 0.7290 0.7280 0.7280 0.7270 0.7270
1346.709967 0.7270 0.7270 0.7260 0.7250 0.7240
1349.953711 0.7220 0.7180 0.7150 0.7110 0.7060
1353.197456 0.7000 0.6930 0.6840 0.6740 0.6650
1356.441200 0.6540 0.6410 0.5980 0.5640 0.5011
1359.684945 0.4441 0.4260 0.4071 0.3871 0.3681
1362.928689 0.3480 0.3290 0.3110 0.3110 0.3559
1366.172433 0.4009 0.4160 0.4439 0.4560 0.4689
1369.416178 0.4980 0.5410 0.5600 0.5600 0.5580
1372.659922 0.5540 0.5540 0.5680 0.5770 0.5899
1375.903667 0.6000 0.6090 0.6250 0.6410 0.6560
1379.147411 0.6730 0.6909 0.7000 0.7129 0.7170
1382.391156 0.7190 0.7190 0.7190 0.7200 0.7200
1385.634900 0.7200 0.7190 0.7190 0.7180 0.7180
1388.878645 0.7170 0.7160 0.7160 0.7170 0.7180
1392.122389 0.7180 0.7200 0.7220 0.7240 0.7250
1395.366134 0.7250 0.7260 0.7270 0.7270 0.7270
1398.609878 0.7270 0.7280 0.7290 0.7290 0.7300
1401.853622 0.7310 0.7310 0.7310 0.7320 0.7320
1405.097367 0.7330 0.7330 0.7340 0.7350 0.7350
1408.341111 0.7360 0.7370 0.7380 0.7390 0.7390
1411.584856 0.7400 0.7400 0.7400 0.7400 0.7400
1414.828600 0.7390 0.7380 0.7380 0.7380 0.7370
1418.072345 0.7370 0.7360 0.7360 0.7360 0.7340
1421.316089 0.7320 0.7310 0.7290 0.7280 0.7270
1424.559834 0.7240 0.7210 0.7180 0.7160 0.7130
1427.803578 0.7120 0.7100 0.7060 0.7000 0.6950
1431.047322 0.6890 0.6820 0.6770 0.6700 0.6640
1434.291067 0.6590 0.6510 0.6390 0.6230 0.5931
1437.534811 0.5740 0.5481 0.5091 0.4084 0.3941
1440.778556 0.3850 0.3670 0.3510 0.3350 0.2940
1444.022300 0.2900 0.2850 0.2850 0.2870 0.2900
1447.266045 0.2940 0.2950 0.2870 0.2720 0.2650
1450.509789 0.2401 0.2220 0.2061 0.2060 0.2120
1453.753534 0.2250 0.2450 0.2740 0.3020 0.3160
1456.997278 0.3260 0.3719 0.4059 0.4389 0.4709
1460.241022 0.5170 0.5510 0.5720 0.5860 0.5930
1463.484767 0.5980 0.6000 0.6020 0.6090 0.6219
1466.728511 0.6290 0.6320 0.6370 0.6390 0.6440
1469.972256 0.6480 0.6560 0.6640 0.6680 0.6720
1473.216000 0.6750 0.6780 0.6810 0.6820 0.6840
1476.459745 0.6880 0.6900 0.6910 0.6930 0.6940
1479.703489 0.6970 0.6980 0.6980 0.7000 0.7000
1482.947234 0.7020 0.7020 0.7040 0.7050 0.7060
1486.190978 0.7070 0.7070 0.7080 0.7080 0.7080
1489.434722 0.7080 0.7070 0.7020 0.7020 0.7000
1492.678467 0.7000 0.6980 0.6970 0.6930 0.6910
1495.922211 0.6900 0.6890 0.6880 0.6880 0.6860
1499.165956 0.6840 0.6790 0.6750 0.6720 0.6680
1502.409700 0.6660 0.6630 0.6610 0.6590 0.6570
1505.653445 0.6550 0.6540 0.6520 0.6500 0.6490
1508.897189 0.6470 0.6410 0.6370 0.6340 0.6310
1512.140934 0.6280 0.6250 0.6230 0.6210 0.6200
1515.384678 0.6180 0.6140 0.6110 0.6110 0.6090
1518.628422 0.6060 0.6030 0.5980 0.5960 0.5950
1521.872167 0.5910 0.5900 0.5890 0.5870 0.5830
1525.115911 0.5800 0.5780 0.5750 0.5710 0.5690
1528.359656 0.5680 0.5640 0.5600 0.5520 0.5470
1531.603400 0.5410 0.5370 0.5320 0.5260 0.5210
1534.847145 0.5160 0.5090 0.5020 0.4970 0.4930
1538.090889 0.4910 0.4870 0.4830 0.4770 0.4670
1541.334634 0.4600 0.4570 0.4540 0.4440 0.4420
1544.578378 0.4390 0.4350 0.4320 0.4300 0.4290
1547.822122 0.4260 0.4260 0.4260 0.4250 0.4250
1551.065867 0.4260 0.4260 0.4260 0.4280 0.4300
1554.309611 0.4310 0.4320 0.4350 0.4380 0.4420
1557.553356 0.4460 0.4480 0.4500 0.4550 0.4600
1560.797100 0.4650 0.4720 0.4780 0.4850 0.4890
1564.040845 0.4920 0.4980 0.5010 0.5080 0.5140
1567.284589 0.5190 0.5230 0.5260 0.5290 0.5320
1570.528334 0.5340 0.5390 0.5440 0.5460 0.5480
1573.772078 0.5480 0.5500 0.5510 0.5540 0.5560
1577.015822 0.5570 0.5570 0.5570 0.5580 0.5580
1580.259567 0.5590 0.5620 0.5640 0.5660 0.5660
1583.503311 0.5680 0.5690 0.5700 0.5710 0.5730
1586.747056 0.5760 0.5800 0.5820 0.5860 0.5890
1589.990800 0.5930 0.5980 0.6000 0.6020 0.6070
1593.234545 0.6100 0.6140 0.6190 0.6230 0.6280
1596.478289 0.6320 0.6350 0.6380 0.6420 0.6450
1599.722034 0.6480 0.6520 0.6630 0.6690 0.6730
1602.965778 0.6750 0.6770 0.6790 0.6810 0.6840
1606.209522 0.6880 0.6890 0.6910 0.6970 0.6980
1609.453267 0.6980 0.7010 0.7030 0.7070 0.7100
1612.697011 0.7110 0.7110 0.7130 0.7150 0.7160
1615.940756 0.7180 0.7190 0.7200 0.7210 0.7230
1619.184500 0.7250 0.7260 0.7280 0.7300 0.7320
1622.428245 0.7330 0.7340 0.7340 0.7350 0.7370
1625.671989 0.7380 0.7390 0.7400 0.7400 0.7410
1628.915734 0.7410 0.7410 0.7420 0.7450 0.7470
1632.159478 0.7490 0.7500 0.7500 0.7500 0.7510
1635.403222 0.7530 0.7530 0.7540 0.7540 0.7550
1638.646967 0.7560 0.7560 0.7570 0.7580 0.7590
1641.890711 0.7590 0.7590 0.7590 0.7600 0.7600
1645.134456 0.7610 0.7610 0.7610 0.7610 0.7630
1648.378200 0.7630 0.7640 0.7650 0.7660 0.7670
1651.621945 0.7670 0.7670 0.7670 0.7680 0.7680
1654.865689 0.7680 0.7690 0.7690 0.7700 0.7710
1658.109434 0.7720 0.7720 0.7720 0.7720 0.7720
1661.353178 0.7730 0.7730 0.7730 0.7730 0.7740
1664.596922 0.7740 0.7740 0.7740 0.7740 0.7740
1667.840667 0.7740 0.7750 0.7750 0.7750 0.7750
1671.084411 0.7760 0.7760 0.7770 0.7770 0.7760
1674.328156 0.7760 0.7760 0.7760 0.7750 0.7750
1677.571900 0.7750 0.7750 0.7750 0.7750 0.7750
1680.815645 0.7750 0.7750 0.7750 0.7750 0.7750
1684.059389 0.7750 0.7740 0.7740 0.7740 0.7740
1687.303134 0.7740 0.7720 0.7720 0.7700 0.7690
1690.546878 0.7680 0.7680 0.7670 0.7670 0.7660
1693.790622 0.7660 0.7650 0.7650 0.7640 0.7640
1697.034367 0.7630 0.7620 0.7610 0.7610 0.7610
1700.278111 0.7590 0.7580 0.7550 0.7500 0.7480
1703.521856 0.7460 0.7440 0.7420 0.7400 0.7380
1706.765600 0.7360 0.7340 0.7310 0.7280 0.7250
1710.009345 0.7230 0.7190 0.7160 0.7130 0.7110
1713.253089 0.7090 0.7080 0.7070 0.7070 0.7060
1716.496834 0.7060 0.7050 0.7040 0.7030 0.7010
1719.740578 0.6990 0.6960 0.6900 0.6830 0.6760
1722.984322 0.6700 0.6640 0.6580 0.6520 0.6450
1726.228067 0.6380 0.6310 0.6230 0.6160 0.6090
1729.471811 0.5930 0.5860 0.5780 0.5700 0.5620
1732.715556 0.5530 0.5510 0.5500 0.5500 0.5500
1735.959300 0.5500 0.5510 0.5590 0.5690 0.5800
1739.203045 0.5880 0.5970 0.6020 0.6050 0.6140
1742.446789 0.6260 0.6370 0.6480 0.6580 0.6680
1745.690534 0.6770 0.6840 0.6920 0.6980 0.7030
1748.934278 0.7070 0.7100 0.7160 0.7200 0.7220
1752.178022 0.7240 0.7250 0.7260 0.7270 0.7280
1755.421767 0.7280 0.7280 0.7280 0.7270 0.7270
1758.665511 0.7270 0.7260 0.7260 0.7260 0.7260
1761.909256 0.7270 0.7270 0.7280 0.7290 0.7290
1765.153000 0.7290 0.7290 0.7300 0.7310 0.7320
1768.396745 0.7330 0.7350 0.7380 0.7400 0.7430
1771.640489 0.7470 0.7490 0.7500 0.7530 0.7540
1774.884234 0.7560 0.7580 0.7590 0.7610 0.7630
1778.127978 0.7640 0.7650 0.7670 0.7680 0.7700
1781.371722 0.7710 0.7720 0.7740 0.7750 0.7770
1784.615467 0.7780 0.7790 0.7800 0.7810 0.7810
1787.859211 0.7810 0.7820 0.7820 0.7820 0.7830
1791.102956 0.7830 0.7830 0.7830 0.7840 0.7840
1794.346700 0.7840 0.7840 0.7850 0.7850 0.7860
1797.590445 0.7860 0.7860 0.7860 0.7870 0.7870
1800.834189 0.7870 0.7880 0.7880 0.7880 0.7870
1804.077934 0.7870 0.7860 0.7860 0.7860 0.7860
1807.321678 0.7850 0.7850 0.7840 0.7840 0.7840
1810.565422 0.7850 0.7850 0.7850 0.7850 0.7860
1813.809167 0.7860 0.7860 0.7860 0.7860 0.7860
1817.052911 0.7860 0.7870 0.7870 0.7870 0.7870
1820.296656 0.7870 0.7870 0.7870 0.7870 0.7870
1823.540400 0.7870 0.7870 0.7880 0.7880 0.7880
1826.784145 0.7880 0.7880 0.7880 0.7880 0.7880
1830.027889 0.7880 0.7880 0.7880 0.7880 0.7880
1833.271634 0.7880 0.7880 0.7880 0.7880 0.7880
1836.515378 0.7880 0.7880 0.7880 0.7870 0.7870
1839.759122 0.7870 0.7860 0.7860 0.7860 0.7860
1843.002867 0.7860 0.7860 0.7850 0.7850 0.7850
1846.246611 0.7840 0.7840 0.7840 0.7830 0.7830
1849.490356 0.7830 0.7830 0.7820 0.7820 0.7820
1852.734100 0.7810 0.7810 0.7810 0.7810 0.7810
1855.977845 0.7810 0.7810 0.7810 0.7810 0.7810
1859.221589 0.7810 0.7810 0.7810 0.7810 0.7810
1862.465334 0.7820 0.7820 0.7820 0.7820 0.7820
1865.709078 0.7830 0.7830 0.7830 0.7830 0.7830
1868.952822 0.7830 0.7830 0.7830 0.7830 0.7830
1872.196567 0.7830 0.7840 0.7840 0.7840 0.7830
1875.440311 0.7830 0.7830 0.7830 0.7820 0.7820
1878.684056 0.7820 0.7820 0.7820 0.7810 0.7810
1881.927800 0.7810 0.7800 0.7800 0.7790 0.7790
1885.171545 0.7770 0.7770 0.7760 0.7740 0.7720
1888.415289 0.7700 0.7690 0.7680 0.7670 0.7650
1891.659034 0.7650 0.7630 0.7630 0.7610 0.7610
1894.902778 0.7590 0.7580 0.7570 0.7550 0.7530
1898.146522 0.7490 0.7400 0.7380 0.7310 0.7310
1901.390267 0.7330 0.7380 0.7430 0.7470 0.7490
1904.634011 0.7500 0.7540 0.7580 0.7600 0.7630
1907.877756 0.7650 0.7670 0.7680 0.7700 0.7720
1911.121500 0.7740 0.7760 0.7770 0.7790 0.7790
1914.365245 0.7790 0.7790 0.7780 0.7770 0.7770
1917.608989 0.7760 0.7750 0.7750 0.7740 0.7740
1920.852734 0.7730 0.7740 0.7740 0.7750 0.7760
1924.096478 0.7760 0.7770 0.7770 0.7770 0.7770
1927.340223 0.7780 0.7780 0.7780 0.7770 0.7770
1930.583967 0.7770 0.7760 0.7760 0.7760 0.7750
1933.827711 0.7750 0.7750 0.7750 0.7750 0.7740
1937.071456 0.7740 0.7740 0.7730 0.7720 0.7710
1940.315200 0.7700 0.7690 0.7680 0.7670 0.7650
1943.558945 0.7640 0.7630 0.7620 0.7610 0.7600
1946.802689 0.7590 0.7570 0.7560 0.7530 0.7500
1950.046434 0.7470 0.7430 0.7390 0.7340 0.7300
1953.290178 0.7250 0.7200 0.7150 0.7100 0.7060
1956.533923 0.7020 0.6980 0.6950 0.6930 0.6910
1959.777667 0.6910 0.6900 0.6900 0.6910 0.6940
1963.021411 0.6950 0.7020 0.7080 0.7110 0.7130
1966.265156 0.7180 0.7200 0.7220 0.7240 0.7260
1969.508900 0.7260 0.7270 0.7270 0.7270 0.7270
1972.752645 0.7260 0.7250 0.7240 0.7240 0.7220
1975.996389 0.7220 0.7200 0.7180 0.7150 0.7100
1979.240134 0.7090 0.7030 0.7000 0.6960 0.6850
1982.483878 0.6790 0.6700 0.6620 0.6580 0.6540
1985.727623 0.6470 0.6450 0.6450 0.6460 0.6470
1988.971367 0.6550 0.6600 0.6650 0.6710 0.6840
1992.215111 0.6980 0.7060 0.7160 0.7200 0.7230
1995.458856 0.7290 0.7320 0.7360 0.7400 0.7420
1998.702600 0.7450 0.7470 0.7490 0.7493 0.7495
2001.946345 0.7498 0.7500 0.7500 0.7500 0.7500
2005.190089 0.7501 0.7503 0.7506 0.7508 0.7511
2008.433834 0.7513 0.7516 0.7519 0.7522 0.7527
2011.677578 0.7532 0.7538 0.7543 0.7548 0.7553
2014.921323 0.7558 0.7562 0.7564 0.7567 0.7569
2018.165067 0.7574 0.7579 0.7584 0.7589 0.7592
2021.408811 0.7595 0.7597 0.7600 0.7602 0.7605
2024.652556 0.7608 0.7611 0.7616 0.7621 0.7626
2027.896300 0.7631 0.7636 0.7641 0.7646 0.7651
2031.140045 0.7653 0.7656 0.7659 0.7661 0.7664
2034.383789 0.7666 0.7669 0.7671 0.7674 0.7676
2037.627534 0.7679 0.7683 0.7688 0.7693 0.7699
2040.871278 0.7700 0.7700 0.7700 0.7700 0.7702
2044.115023 0.7705 0.7707 0.7710 0.7717 0.7725
2047.358767 0.7733 0.7740 0.7740 0.7740 0.7740
2050.602511 0.7740 0.7740 0.7740 0.7740 0.7741
2053.846256 0.7743 0.7746 0.7748 0.7750 0.7750
2057.090000 0.7750 0.7750 0.7751 0.7754 0.7756
2060.333745 0.7759 0.7760 0.7760 0.7760 0.7760
2063.577489 0.7762 0.7764 0.7767 0.7770 0.7770
2066.821234 0.7770 0.7770 0.7770 0.7772 0.7775
2070.064978 0.7778 0.7780 0.7783 0.7785 0.7788
2073.308723 0.7790 0.7790 0.7790 0.7790 0.7791
2076.552467 0.7793 0.7796 0.7798 0.7800 0.7800
2079.796211 0.7800 0.7800 0.7801 0.7804 0.7806
2083.039956 0.7809 0.7810 0.7810 0.7810 0.7810
2086.283700 0.7810 0.7810 0.7810 0.7810 0.7812
2089.527445 0.7815 0.7817 0.7820 0.7822 0.7825
2092.771189 0.7828 0.7830 0.7833 0.7835 0.7838
2096.014934 0.7840 0.7840 0.7840 0.7840 0.7840
2099.258678 0.7840 0.7840 0.7840 0.7840 0.7840
2102.502423 0.7840 0.7840 0.7840 0.7840 0.7840
2105.746167 0.7840 0.7842 0.7844 0.7847 0.7849
2108.989911 0.7850 0.7850 0.7850 0.7850 0.7852
2112.233656 0.7855 0.7857 0.7860 0.7860 0.7860
2115.477400 0.7860 0.7860 0.7863 0.7865 0.7868
2118.721145 0.7870 0.7870 0.7870 0.7870 0.7871
2121.964889 0.7873 0.7876 0.7878 0.7880 0.7880
2125.208634 0.7880 0.7880 0.7880 0.7880 0.7880
2128.452378 0.7880 0.7880 0.7880 0.7880 0.7880
2131.696123 0.7880 0.7880 0.7880 0.7880 0.7880
2134.939867 0.7880 0.7880 0.7880 0.7882 0.7885
2138.183611 0.7887 0.7890 0.7890 0.7890 0.7890
2141.427356 0.7890 0.7890 0.7890 0.7890 0.7890
2144.671100 0.7890 0.7890 0.7890 0.7890 0.7890
2147.914845 0.7890 0.7890 0.7890 0.7890 0.7890
2151.158589 0.7890 0.7890 0.7890 0.7890 0.7890
2154.402334 0.7890 0.7890 0.7890 0.7890 0.7888
2157.646078 0.7885 0.7883 0.7880 0.7880 0.7880
2160.889823 0.7880 0.7880 0.7877 0.7875 0.7872
2164.133567 0.7870 0.7867 0.7865 0.7862 0.7859
2167.377311 0.7857 0.7854 0.7852 0.7849 0.7847
2170.621056 0.7844 0.7841 0.7840 0.7840 0.7840
2173.864800 0.7840 0.7841 0.7844 0.7847 0.7849
2177.108545 0.7852 0.7854 0.7857 0.7859 0.7860
2180.352289 0.7860 0.7860 0.7860 0.7860 0.7860
2183.596034 0.7860 0.7860 0.7863 0.7865 0.7868
2186.839778 0.7870 0.7873 0.7875 0.7878 0.7880
2190.083523 0.7880 0.7880 0.7880 0.7880 0.7880
2193.327267 0.7880 0.7880 0.7880 0.7880 0.7880
2196.571011 0.7880 0.7880 0.7880 0.7880 0.7880
2199.814756 0.7880 0.7880 0.7880 0.7880 0.7880
2203.058500 0.7880 0.7880 0.7880 0.7878 0.7875
2206.302245 0.7873 0.7870 0.7867 0.7865 0.7862
2209.545989 0.7860 0.7857 0.7855 0.7852 0.7849
2212.789734 0.7847 0.7844 0.7842 0.7838 0.7833
2216.033478 0.7828 0.7823 0.7819 0.7816 0.7814
2219.277223 0.7811 0.7807 0.7802 0.7797 0.7792
2222.520967 0.7787 0.7782 0.7776 0.7771 0.7766
2225.764711 0.7761 0.7756 0.7751 0.7743 0.7735
2229.008456 0.7728 0.7720 0.7712 0.7705 0.7697
2232.252200 0.7689 0.7684 0.7679 0.7674 0.7669
2235.495945 0.7667 0.7664 0.7662 0.7661 0.7663
2238.739689 0.7666 0.7669 0.7672 0.7677 0.7682
2241.983434 0.7688 0.7694 0.7702 0.7709 0.7717
2245.227178 0.7728 0.7741 0.7754 0.7767 0.7778
2248.470923 0.7788 0.7798 0.7808 0.7810 0.7810
2251.714667 0.7810 0.7810 0.7810 0.7810 0.7810
2254.958411 0.7810 0.7807 0.7805 0.7802 0.7799
2258.202156 0.7797 0.7794 0.7792 0.7788 0.7783
2261.445900 0.7778 0.7773 0.7768 0.7763 0.7758
2264.689645 0.7752 0.7746 0.7738 0.7731 0.7723
2267.933389 0.7714 0.7703 0.7693 0.7683 0.7665
2271.177134 0.7644 0.7624 0.7603 0.7576 0.7548
2274.420878 0.7520 0.7492 0.7488 0.7485 0.7482
2277.664623 0.7480 0.7477 0.7475 0.7472 0.7471
2280.908367 0.7473 0.7476 0.7478 0.7481 0.7483
2284.152111 0.7486 0.7488 0.7491 0.7494 0.7496
2287.395856 0.7499 0.7503 0.7508 0.7513 0.7518
2290.639600 0.7525 0.7532 0.7540 0.7548 0.7556
2293.883345 0.7563 0.7571 0.7579 0.7582 0.7585
2297.127089 0.7587 0.7590 0.7595 0.7600 0.7605
2300.370834 0.7610 0.7610 0.7610 0.7610 0.7611
2303.614578 0.7613 0.7616 0.7618 0.7620 0.7620
2306.858323 0.7620 0.7620 0.7623 0.7631 0.7639
2310.102067 0.7646 0.7653 0.7658 0.7663 0.7668
2313.345811 0.7673 0.7678 0.7683 0.7689 0.7694
2316.589556 0.7699 0.7704 0.7709 0.7714 0.7719
2319.833300 0.7725 0.7730 0.7735 0.7740 0.7745
2323.077045 0.7750 0.7753 0.7755 0.7758 0.7760
2326.320789 0.7763 0.7766 0.7768 0.7772 0.7777
2329.564534 0.7782 0.7787 0.7791 0.7794 0.7796
2332.808278 0.7799 0.7801 0.7804 0.7806 0.7809
2336.052023 0.7810 0.7810 0.7810 0.7810 0.7806
2339.295767 0.7801 0.7796 0.7791 0.7786 0.7781
2342.539511 0.7776 0.7770 0.7775 0.7780 0.7785
2345.783256 0.7790 0.7793 0.7795 0.7798 0.7800
2349.027000 0.7803 0.7805 0.7808 0.7811 0.7813
2352.270745 0.7816 0.7818 0.7822 0.7827 0.7832
2355.514489 0.7837 0.7841 0.7844 0.7846 0.7849
2358.758234 0.7852 0.7854 0.7857 0.7859 0.7860
2362.001978 0.7860 0.7860 0.7860 0.7860 0.7860
2365.245723 0.7860 0.7860 0.7860 0.7860 0.7860
2368.489467 0.7860 0.7863 0.7865 0.7868 0.7870
2371.733211 0.7867 0.7865 0.7862 0.7860 0.7860
2374.976956 0.7860 0.7860 0.7860 0.7860 0.7860
2378.220700 0.7860 0.7857 0.7852 0.7847 0.7842
2381.464445 0.7838 0.7836 0.7833 0.7831 0.7828
2384.708189 0.7826 0.7823 0.7820 0.7803 0.7783
2387.951934 0.7762 0.7742 0.7731 0.7720 0.7710
2391.195678 0.7700 0.7687 0.7674 0.7661 0.7650
2394.439423 0.7647 0.7645 0.7642 0.7641 0.7643
2397.683167 0.7646 0.7648 0.7652 0.7657 0.7662
2400.926911 0.7667 0.7675 0.7685 0.7695 0.7706
2404.170656 0.7722 0.7743 0.7763 0.7784 0.7797
2407.414400 0.7807 0.7818 0.7828 0.7836 0.7844
2410.658145 0.7852 0.7859 0.7860 0.7860 0.7860
2413.901889 0.7860 0.7865 0.7870 0.7875 0.7880
2417.145634 0.7880 0.7880 0.7880 0.7880 0.7880
2420.389378 0.7880 0.7880 0.7879 0.7877 0.7874
2423.633123 0.7871 0.7869 0.7866 0.7864 0.7861
2426.876867 0.7860 0.7860 0.7860 0.7860 0.7860
2430.120612 0.7860 0.7860 0.7860 0.7864 0.7869
2433.364356 0.7874 0.7880 0.7885 0.7890 0.7895
2436.608100 0.7900 0.7903 0.7905 0.7908 0.7911
2439.851845 0.7916 0.7921 0.7926 0.7930 0.7930
2443.095589 0.7930 0.7930 0.7931 0.7933 0.7936
2446.339334 0.7939 0.7940 0.7940 0.7940 0.7940
2449.583078 0.7937 0.7932 0.7927 0.7922 0.7918
2452.826823 0.7916 0.7913 0.7911 0.7904 0.7896
2456.070567 0.7888 0.7881 0.7875 0.7870 0.7865
2459.314312 0.7860 0.7857 0.7855 0.7852 0.7850
2462.558056 0.7847 0.7845 0.7842 0.7839 0.7837
2465.801800 0.7834 0.7832 0.7830 0.7830 0.7830
2469.045545 0.7830 0.7828 0.7823 0.7818 0.7812
2472.289289 0.7810 0.7810 0.7810 0.7810 0.7810
2475.533034 0.7810 0.7810 0.7810 0.7808 0.7805
2478.776778 0.7803 0.7800 0.7802 0.7805 0.7807
2482.020523 0.7810 0.7810 0.7810 0.7810 0.7810
2485.264267 0.7810 0.7810 0.7810 0.7811 0.7813
2488.508012 0.7816 0.7818 0.7821 0.7823 0.7826
2491.751756 0.7829 0.7830 0.7830 0.7830 0.7830
2494.995500 0.7833 0.7838 0.7843 0.7848 0.7852
2498.239245 0.7854 0.7857 0.7859 0.7864 0.7869
2501.482989 0.7874 0.7879 0.7880 0.7880 0.7880
2504.726734 0.7880 0.7880 0.7880 0.7880 0.7880
2507.970478 0.7880 0.7880 0.7880 0.7881 0.7883
2511.214223 0.7886 0.7888 0.7890 0.7890 0.7890
2514.457967 0.7890 0.7891 0.7894 0.7896 0.7899
2517.701712 0.7900 0.7900 0.7900 0.7900 0.7900
2520.945456 0.7900 0.7900 0.7900 0.7900 0.7900
2524.189200 0.7900 0.7900 0.7900 0.7900 0.7900
2527.432945 0.7900 0.7900 0.7900 0.7900 0.7900
2530.676689 0.7900 0.7900 0.7900 0.7900 0.7900
2533.920434 0.7900 0.7900 0.7900 0.7900 0.7900
2537.164178 0.7900 0.7900 0.7900 0.7900 0.7900
2540.407923 0.7900 0.7900 0.7900 0.7900 0.7898
2543.651667 0.7896 0.7893 0.7891 0.7890 0.7890
2546.895412 0.7890 0.7890 0.7888 0.7885 0.7883
2550.139156 0.7880 0.7875 0.7870 0.7865 0.7860
2553.382900 0.7860 0.7860 0.7860 0.7860 0.7857
2556.626645 0.7854 0.7852 0.7847 0.7837 0.7826
2559.870389 0.7816 0.7804 0.7788 0.7773 0.7758
2563.114134 0.7744 0.7731 0.7718 0.7705 0.7694
2566.357878 0.7683 0.7673 0.7663 0.7656 0.7651
2569.601623 0.7646 0.7641 0.7629 0.7617 0.7604
2572.845367 0.7591 0.7580 0.7570 0.7560 0.7550
2576.089112 0.7547 0.7545 0.7542 0.7540 0.7540
2579.332856 0.7540 0.7540 0.7541 0.7543 0.7546
2582.576600 0.7548 0.7551 0.7554 0.7556 0.7559
2585.820345 0.7564 0.7572 0.7579 0.7587 0.7602
2589.064089 0.7623 0.7644 0.7664 0.7679 0.7692
2592.307834 0.7705 0.7718 0.7726 0.7734 0.7742
2595.551578 0.7749 0.7757 0.7765 0.7772 0.7780
2598.795323 0.7788 0.7796 0.7803 0.7811 0.7816
2602.039067 0.7821 0.7826 0.7832 0.7840 0.7847
2605.282812 0.7855 0.7860 0.7860 0.7860 0.7860
2608.526556 0.7860 0.7860 0.7860 0.7860 0.7860
2611.770300 0.7860 0.7860 0.7860 0.7860 0.7860
2615.014045 0.7860 0.7860 0.7860 0.7860 0.7860
2618.257789 0.7860 0.7860 0.7860 0.7860 0.7860
2621.501534 0.7860 0.7860 0.7860 0.7860 0.7860
2624.745278 0.7860 0.7860 0.7860 0.7860 0.7860
2627.989023 0.7860 0.7859 0.7857 0.7854 0.7851
2631.232767 0.7850 0.7850 0.7850 0.7850 0.7847
2634.476512 0.7842 0.7837 0.7832 0.7826 0.7821
2637.720256 0.7816 0.7811 0.7806 0.7801 0.7796
2640.964000 0.7790 0.7785 0.7780 0.7775 0.7770
2644.207745 0.7765 0.7760 0.7755 0.7749 0.7741
2647.451489 0.7734 0.7726 0.7718 0.7711 0.7703
2650.695234 0.7695 0.7687 0.7680 0.7672 0.7664
2653.938978 0.7654 0.7641 0.7628 0.7615 0.7604
2657.182723 0.7594 0.7583 0.7573 0.7558 0.7540
2660.426467 0.7522 0.7504 0.7490 0.7477 0.7464
2663.670212 0.7451 0.7436 0.7421 0.7405 0.7390
2666.913956 0.7364 0.7338 0.7313 0.7287 0.7261
2670.157700 0.7236 0.7210 0.7184 0.7156 0.7127
2673.401445 0.7099 0.7057 0.6985 0.6913 0.6841
2676.645189 0.6777 0.6723 0.6669 0.6615 0.6566
2679.888934 0.6522 0.6478 0.6434 0.6397 0.6364
2683.132678 0.6330 0.6297 0.6263 0.6230 0.6197
2686.376423 0.6163 0.6091 0.6014 0.5937 0.5860
2689.620167 0.5837 0.5814 0.5791 0.5770 0.5770
2692.863912 0.5770 0.5770 0.5774 0.5795 0.5815
2696.107656 0.5836 0.5861 0.5894 0.5927 0.5961
2699.351400 0.5994 0.6028 0.6061 0.6094 0.6151
2702.595145 0.6228 0.6305 0.6382 0.6494 0.6627
2705.838889 0.6759 0.6892 0.6977 0.7049 0.7120
2709.082634 0.7192 0.7234 0.7273 0.7311 0.7350
2712.326378 0.7370 0.7391 0.7412 0.7430 0.7430
2715.570123 0.7430 0.7430 0.7431 0.7436 0.7441
2718.813867 0.7446 0.7448 0.7443 0.7438 0.7433
2722.057612 0.7428 0.7423 0.7418 0.7412 0.7403
2725.301356 0.7390 0.7378 0.7365 0.7333 0.7289
2728.545100 0.7245 0.7202 0.7150 0.7095 0.7041
2731.788845 0.6986 0.6937 0.6888 0.6839 0.6790
2735.032589 0.6731 0.6672 0.6613 0.6554 0.6495
2738.276334 0.6436 0.6377 0.6326 0.6308 0.6290
2741.520078 0.6272 0.6229 0.6129 0.6029 0.5929
2744.763823 0.5859 0.5834 0.5808 0.5782 0.5741
2748.007567 0.5684 0.5628 0.5571 0.5550 0.5550
2751.251312 0.5550 0.5550 0.5569 0.5594 0.5620
2754.495056 0.5646 0.5726 0.5817 0.5908 0.5999
2757.738800 0.6020 0.6041 0.6061 0.6082 0.6102
2760.982545 0.6123 0.6144 0.6178 0.6268 0.6357
2764.226289 0.6447 0.6528 0.6587 0.6646 0.6705
2767.470034 0.6755 0.6791 0.6827 0.6862 0.6893
2770.713778 0.6919 0.6945 0.6970 0.6990 0.7005
2773.957523 0.7020 0.7036 0.7053 0.7071 0.7089
2777.201267 0.7107 0.7133 0.7162 0.7190 0.7218
2780.445012 0.7222 0.7225 0.7228 0.7230 0.7233
2783.688756 0.7235 0.7238 0.7240 0.7240 0.7240
2786.932500 0.7240 0.7238 0.7233 0.7228 0.7223
2790.176245 0.7208 0.7177 0.7146 0.7115 0.7099
2793.419989 0.7096 0.7094 0.7091 0.7068 0.7032
2796.663734 0.6996 0.6960 0.6924 0.6888 0.6852
2799.907478 0.6816 0.6772 0.6726 0.6680 0.6633
2803.151223 0.6594 0.6556 0.6517 0.6479 0.6445
2806.394967 0.6411 0.6377 0.6345 0.6320 0.6294
2809.638712 0.6268 0.6242 0.6214 0.6185 0.6157
2812.882456 0.6120 0.6068 0.6017 0.5966 0.5925
2816.126200 0.5894 0.5863 0.5832 0.5798 0.5762
2819.369945 0.5726 0.5690 0.5647 0.5601 0.5555
2822.613689 0.5508 0.5452 0.5393 0.5334 0.5275
2825.857434 0.5220 0.5166 0.5112 0.5056 0.4910
2829.101178 0.4763 0.4617 0.4379 0.3542 0.2705
2832.344923 0.1868 0.1255 0.1204 0.1153 0.1101
2835.588667 0.1051 0.1002 0.0953 0.0905 0.0856
2838.832412 0.0807 0.0758 0.0709 0.0661 0.0612
2842.076156 0.0563 0.0514 0.0464 0.0412 0.0361
2845.319900 0.0310 0.0263 0.0216 0.0170 0.0124
2848.563645 0.0120 0.0120 0.0120 0.0121 0.0191
2851.807389 0.0260 0.0329 0.0398 0.0465 0.0532
2855.051134 0.0599 0.0666 0.0736 0.0807 0.0877
2858.294878 0.0926 0.0941 0.0957 0.0972 0.0998
2861.538623 0.1034 0.1070 0.1106 0.1161 0.1231
2864.782367 0.1300 0.1369 0.1433 0.1495 0.1556
2868.026112 0.1618 0.1678 0.1737 0.1796 0.1855
2871.269856 0.1909 0.1963 0.2017 0.2068 0.1950
2874.513600 0.1832 0.1714 0.1595 0.1472 0.1349
2877.757345 0.1225 0.1121 0.1080 0.1039 0.0997
2881.001089 0.0957 0.0918 0.0879 0.0840 0.0820
2884.244834 0.0820 0.0820 0.0820 0.0911 0.1065
2887.488578 0.1219 0.1373 0.1452 0.1498 0.1545
2890.732323 0.1591 0.1635 0.1679 0.1722 0.1766
2893.976067 0.1823 0.1883 0.1942 0.2000 0.2000
2897.219812 0.2000 0.2000 0.2000 0.1997 0.1995
2900.463556 0.1992 0.1948 0.1758 0.1568 0.1378
2903.707300 0.1223 0.1141 0.1059 0.0977 0.0894
2906.951045 0.0811 0.0728 0.0644 0.0610 0.0610
2910.194789 0.0610 0.0610 0.0676 0.0771 0.0866
2913.438534 0.0961 0.1056 0.1151 0.1246 0.1341
2916.682278 0.1364 0.1379 0.1395 0.1410 0.1475
2919.926023 0.1539 0.1603 0.1667 0.1728 0.1790
2923.169767 0.1852 0.1934 0.2094 0.2253 0.2412
2926.413512 0.2554 0.2659 0.2764 0.2870 0.2975
2929.657256 0.3080 0.3185 0.3291 0.3362 0.3404
2932.901000 0.3445 0.3487 0.3504 0.3509 0.3514
2936.144745 0.3519 0.3398 0.3244 0.3090 0.2936
2939.388489 0.2541 0.2117 0.1694 0.1270 0.1224
2942.632234 0.1178 0.1131 0.1087 0.1059 0.1031
2945.875978 0.1002 0.0965 0.0896 0.0827 0.0757
2949.119723 0.0688 0.0619 0.0550 0.0480 0.0413
2952.363467 0.0349 0.0285 0.0220 0.0190 0.0190
2955.607212 0.0190 0.0190 0.0215 0.0254 0.0293
2958.850956 0.0332 0.0372 0.0413 0.0454 0.0496
2962.094701 0.0537 0.0578 0.0619 0.0660 0.0698
2965.338445 0.0737 0.0775 0.0814 0.0852 0.0891
2968.582189 0.0929 0.0972 0.1028 0.1085 0.1141
2971.825934 0.1200 0.1264 0.1328 0.1392 0.1456
2975.069678 0.1517 0.1579 0.1640 0.1748 0.1896
2978.313423 0.2045 0.2194 0.2353 0.2517 0.2681
2981.557167 0.2846 0.2953 0.3038 0.3124 0.3210
2984.800912 0.3295 0.3380 0.3464 0.3549 0.3718
2988.044656 0.3887 0.4057 0.4217 0.4294 0.4371
2991.288401 0.4448 0.4526 0.4605 0.4685 0.4765
2994.532145 0.4861 0.4994 0.5128 0.5261 0.5389
2997.775889 0.5510 0.5631 0.5751 0.5817 0.5829
3001.019634 0.5842 0.5855 0.5860 0.5860 0.5860
3004.263378 0.5860 0.5882 0.5913 0.5944 0.5975
3007.507123 0.6004 0.6032 0.6061 0.6090 0.6143
3010.750867 0.6197 0.6251 0.6305 0.6364 0.6423
3013.994612 0.6482 0.6532 0.6545 0.6558 0.6571
3017.238356 0.6592 0.6630 0.6669 0.6707 0.6745
3020.482101 0.6780 0.6816 0.6852 0.6882 0.6905
3023.725845 0.6928 0.6951 0.6968 0.6981 0.6994
3026.969589 0.7006 0.7023 0.7041 0.7059 0.7077
3030.213334 0.7091 0.7103 0.7116 0.7129 0.7142
3033.457078 0.7155 0.7168 0.7181 0.7188 0.7196
3036.700823 0.7204 0.7211 0.7216 0.7221 0.7226
3039.944567 0.7235 0.7250 0.7265 0.7281 0.7293
3043.188312 0.7301 0.7308 0.7316 0.7323 0.7328
3046.432056 0.7333 0.7338 0.7343 0.7348 0.7353
3049.675801 0.7359 0.7364 0.7369 0.7374 0.7379
3052.919545 0.7382 0.7385 0.7387 0.7390 0.7392
3056.163289 0.7395 0.7398 0.7400 0.7403 0.7405
3059.407034 0.7408 0.7411 0.7416 0.7421 0.7426
3062.650778 0.7431 0.7433 0.7436 0.7438 0.7441
3065.894523 0.7444 0.7446 0.7449 0.7455 0.7465
3069.138267 0.7476 0.7486 0.7492 0.7494 0.7497
3072.382012 0.7499 0.7504 0.7509 0.7514 0.7519
3075.625756 0.7524 0.7529 0.7534 0.7540 0.7540
3078.869501 0.7540 0.7540 0.7540 0.7540 0.7540
3082.113245 0.7540 0.7540 0.7543 0.7546 0.7548
3085.356989 0.7550 0.7550 0.7550 0.7550 0.7550
3088.600734 0.7550 0.7550 0.7550 0.7550 0.7550
3091.844478 0.7550 0.7550 0.7550 0.7550 0.7550
3095.088223 0.7550 0.7548 0.7546 0.7543 0.7541
3098.331967 0.7540 0.7540 0.7540 0.7540 0.7540
3101.575712 0.7540 0.7540 0.7540 0.7537 0.7535
3104.819456 0.7532 0.7530 0.7527 0.7525 0.7522
3108.063201 0.7519 0.7517 0.7514 0.7512 0.7509
3111.306945 0.7506 0.7504 0.7501 0.7499 0.7496
3114.550689 0.7494 0.7491 0.7490 0.7490 0.7490
3117.794434 0.7490 0.7488 0.7486 0.7483 0.7481
3121.038178 0.7478 0.7475 0.7473 0.7470 0.7470
3124.281923 0.7470 0.7470 0.7470 0.7470 0.7470
3127.525667 0.7470 0.7470 0.7470 0.7470 0.7470
3130.769412 0.7470 0.7470 0.7470 0.7470 0.7471
3134.013156 0.7473 0.7476 0.7479 0.7481 0.7484
3137.256901 0.7486 0.7489 0.7490 0.7490 0.7490
3140.500645 0.7490 0.7490 0.7490 0.7490 0.7490
3143.744389 0.7492 0.7495 0.7497 0.7500 0.7500
3146.988134 0.7500 0.7500 0.7500 0.7500 0.7500
3150.231878 0.7500 0.7500 0.7503 0.7505 0.7508
3153.475623 0.7511 0.7513 0.7516 0.7518 0.7520
3156.719367 0.7520 0.7520 0.7520 0.7520 0.7520
3159.963112 0.7520 0.7520 0.7520 0.7520 0.7520
3163.206856 0.7520 0.7522 0.7524 0.7527 0.7529
3166.450601 0.7530 0.7530 0.7530 0.7530 0.7528
3169.694345 0.7525 0.7523 0.7520 0.7520 0.7520
3172.938089 0.7520 0.7520 0.7520 0.7520 0.7520
3176.181834 0.7520 0.7520 0.7520 0.7520 0.7520
3179.425578 0.7520 0.7520 0.7520 0.7520 0.7520
3182.669323 0.7520 0.7520 0.7520 0.7520 0.7520
3185.913067 0.7520 0.7520 0.7520 0.7520 0.7520
3189.156812 0.7520 0.7520 0.7520 0.7520 0.7525
3192.400556 0.7530 0.7535 0.7540 0.7540 0.7540
3195.644301 0.7540 0.7540 0.7543 0.7545 0.7548
3198.888045 0.7551 0.7553 0.7556 0.7558 0.7560
3202.131789 0.7560 0.7560 0.7560 0.7560 0.7560
3205.375534 0.7560 0.7560 0.7560 0.7560 0.7560
3208.619278 0.7560 0.7560 0.7560 0.7560 0.7560
3211.863023 0.7558 0.7555 0.7553 0.7550 0.7548
3215.106767 0.7545 0.7543 0.7540 0.7540 0.7540
3218.350512 0.7540 0.7540 0.7534 0.7529 0.7524
3221.594256 0.7520 0.7520 0.7520 0.7520 0.7520
3224.838001 0.7520 0.7520 0.7520 0.7520 0.7520
3228.081745 0.7520 0.7520 0.7520 0.7520 0.7520
3231.325489 0.7520 0.7520 0.7520 0.7520 0.7520
3234.569234 0.7522 0.7524 0.7527 0.7530 0.7532
3237.812978 0.7535 0.7537 0.7540 0.7540 0.7540
3241.056723 0.7540 0.7540 0.7546 0.7551 0.7556
3244.300467 0.7560 0.7560 0.7560 0.7560 0.7562
3247.544212 0.7567 0.7572 0.7577 0.7580 0.7580
3250.787956 0.7580 0.7580 0.7580 0.7580 0.7580
3254.031701 0.7580 0.7582 0.7584 0.7587 0.7589
3257.275445 0.7590 0.7590 0.7590 0.7590 0.7590
3260.519189 0.7590 0.7590 0.7590 0.7590 0.7590
3263.762934 0.7590 0.7590 0.7590 0.7590 0.7590
3267.006678 0.7590 0.7590 0.7590 0.7590 0.7590
3270.250423 0.7590 0.7590 0.7590 0.7590 0.7590
3273.494167 0.7590 0.7590 0.7590 0.7590 0.7590
3276.737912 0.7590 0.7590 0.7590 0.7590 0.7590
3279.981656 0.7590 0.7590 0.7590 0.7590 0.7590
3283.225401 0.7590 0.7590 0.7590 0.7590 0.7590
3286.469145 0.7590 0.7590 0.7590 0.7590 0.7590
3289.712889 0.7590 0.7590 0.7590 0.7590 0.7591
3292.956634 0.7593 0.7596 0.7598 0.7600 0.7600
3296.200378 0.7600 0.7600 0.7600 0.7600 0.7600
3299.444123 0.7600 0.7600 0.7600 0.7600 0.7600
3302.687867 0.7600 0.7600 0.7600 0.7600 0.7600
3305.931612 0.7600 0.7600 0.7600 0.7600 0.7600
3309.175356 0.7600 0.7600 0.7597 0.7595 0.7592
3312.419101 0.7590 0.7587 0.7584 0.7582 0.7580
3315.662845 0.7580 0.7580 0.7580 0.7580 0.7580
3318.906589 0.7580 0.7580 0.7580 0.7580 0.7580
3322.150334 0.7580 0.7578 0.7576 0.7573 0.7571
3325.394078 0.7568 0.7566 0.7563 0.7560 0.7560
3328.637823 0.7560 0.7560 0.7560 0.7560 0.7560
3331.881567 0.7560 0.7560 0.7560 0.7560 0.7560
3335.125312 0.7560 0.7560 0.7560 0.7560 0.7560
3338.369056 0.7560 0.7560 0.7560 0.7560 0.7560
3341.612801 0.7560 0.7560 0.7560 0.7560 0.7560
3344.856545 0.7560 0.7560 0.7560 0.7560 0.7560
3348.100289 0.7560 0.7560 0.7560 0.7560 0.7560
3351.344034 0.7560 0.7560 0.7560 0.7558 0.7555
3354.587778 0.7553 0.7550 0.7550 0.7550 0.7550
3357.831523 0.7550 0.7547 0.7545 0.7542 0.7539
3361.075267 0.7537 0.7534 0.7532 0.7529 0.7526
3364.319012 0.7524 0.7521 0.7520 0.7520 0.7520
3367.562756 0.7520 0.7517 0.7512 0.7507 0.7502
3370.806501 0.7498 0.7496 0.7493 0.7491 0.7486
3374.050245 0.7481 0.7476 0.7470 0.7470 0.7470
3377.293989 0.7470 0.7470 0.7470 0.7470 0.7470
3380.537734 0.7470 0.7467 0.7465 0.7462 0.7459
3383.781478 0.7457 0.7454 0.7452 0.7450 0.7450
3387.025223 0.7450 0.7450 0.7450 0.7450 0.7450
3390.268967 0.7450 0.7450 0.7450 0.7450 0.7450
3393.512712 0.7448 0.7446 0.7443 0.7441 0.7440
3396.756456 0.7440 0.7440 0.7440 0.7438 0.7435
3400.000201 0.7433 0.7430 0.7430 0.7430 0.7430
3403.243945 0.7430 0.7430 0.7430 0.7430 0.7430
3406.487689 0.7430 0.7430 0.7430 0.7430 0.7430
3409.731434 0.7430 0.7430 0.7430 0.7430 0.7430
3412.975178 0.7430 0.7430 0.7430 0.7430 0.7430
3416.218923 0.7428 0.7426 0.7423 0.7421 0.7420
3419.462667 0.7420 0.7420 0.7420 0.7418 0.7415
3422.706412 0.7413 0.7410 0.7410 0.7410 0.7410
3425.950156 0.7410 0.7410 0.7410 0.7410 0.7409
3429.193901 0.7407 0.7404 0.7402 0.7398 0.7393
3432.437645 0.7388 0.7383 0.7380 0.7380 0.7380
3435.681389 0.7380 0.7377 0.7372 0.7367 0.7362
3438.925134 0.7355 0.7347 0.7339 0.7332 0.7326
3442.168878 0.7321 0.7316 0.7311 0.7308 0.7305
3445.412623 0.7303 0.7300 0.7295 0.7290 0.7285
3448.656367 0.7280 0.7277 0.7275 0.7272 0.7269
3451.900112 0.7267 0.7264 0.7262 0.7259 0.7257
3455.143856 0.7254 0.7252 0.7249 0.7246 0.7244
3458.387601 0.7241 0.7240 0.7240 0.7240 0.7240
3461.631345 0.7238 0.7236 0.7233 0.7231 0.7230
3464.875089 0.7230 0.7230 0.7230 0.7228 0.7225
3468.118834 0.7223 0.7220 0.7220 0.7220 0.7220
3471.362578 0.7220 0.7220 0.7220 0.7220 0.7220
3474.606323 0.7220 0.7220 0.7220 0.7219 0.7217
3477.850067 0.7214 0.7212 0.7210 0.7210 0.7210
3481.093812 0.7210 0.7209 0.7206 0.7204 0.7201
3484.337556 0.7200 0.7200 0.7200 0.7200 0.7200
3487.581301 0.7200 0.7200 0.7200 0.7200 0.7200
3490.825045 0.7200 0.7200 0.7200 0.7200 0.7200
3494.068790 0.7200 0.7200 0.7200 0.7200 0.7200
3497.312534 0.7197 0.7194 0.7192 0.7190 0.7190
3500.556278 0.7190 0.7190 0.7189 0.7186 0.7184
3503.800023 0.7181 0.7180 0.7180 0.7180 0.7180
3507.043767 0.7180 0.7180 0.7180 0.7180 0.7180
3510.287512 0.7180 0.7180 0.7180 0.7182 0.7185
3513.531256 0.7187 0.7190 0.7193 0.7195 0.7198
3516.775001 0.7200 0.7200 0.7200 0.7200 0.7200
3520.018745 0.7200 0.7200 0.7200 0.7201 0.7203
3523.262490 0.7206 0.7208 0.7211 0.7214 0.7216
3526.506234 0.7219 0.7221 0.7224 0.7226 0.7229
3529.749978 0.7233 0.7238 0.7243 0.7249 0.7252
3532.993723 0.7254 0.7257 0.7260 0.7262 0.7265
3536.237467 0.7267 0.7270 0.7272 0.7275 0.7278
3539.481212 0.7280 0.7283 0.7285 0.7288 0.7291
3542.724956 0.7296 0.7301 0.7306 0.7311 0.7313
3545.968701 0.7316 0.7318 0.7322 0.7327 0.7332
3549.212445 0.7337 0.7341 0.7344 0.7346 0.7349
3552.456190 0.7353 0.7358 0.7363 0.7368 0.7370
3555.699934 0.7370 0.7370 0.7370 0.7372 0.7375
3558.943678 0.7377 0.7380 0.7380 0.7380 0.7380
3562.187423 0.7380 0.7380 0.7380 0.7380 0.7380
3565.431167 0.7380 0.7380 0.7380 0.7380 0.7380
3568.674912 0.7380 0.7380 0.7381 0.7384 0.7386
3571.918656 0.7389 0.7390 0.7390 0.7390 0.7390
3575.162401 0.7392 0.7394 0.7397 0.7399 0.7402
3578.406145 0.7404 0.7407 0.7410 0.7412 0.7415
3581.649890 0.7417 0.7420 0.7422 0.7425 0.7427
3584.893634 0.7430 0.7435 0.7440 0.7445 0.7451
3588.137378 0.7456 0.7461 0.7466 0.7472 0.7480
3591.381123 0.7488 0.7495 0.7501 0.7504 0.7506
3594.624867 0.7509 0.7511 0.7514 0.7516 0.7519
3597.868612 0.7523 0.7528 0.7533 0.7538 0.7544
3601.112356 0.7549 0.7554 0.7559 0.7564 0.7569
3604.356101 0.7574 0.7580 0.7580 0.7580 0.7580
3607.599845 0.7580 0.7583 0.7585 0.7588 0.7591
3610.843590 0.7596 0.7601 0.7606 0.7610 0.7610
3614.087334 0.7610 0.7610 0.7611 0.7614 0.7616
3617.331078 0.7619 0.7621 0.7624 0.7626 0.7629
3620.574823 0.7633 0.7638 0.7643 0.7648 0.7652
3623.818567 0.7654 0.7657 0.7659 0.7662 0.7665
3627.062312 0.7667 0.7670 0.7675 0.7680 0.7685
3630.306056 0.7690 0.7693 0.7695 0.7698 0.7701
3633.549801 0.7706 0.7711 0.7716 0.7721 0.7726
3636.793545 0.7731 0.7736 0.7742 0.7750 0.7758
3640.037290 0.7766 0.7774 0.7781 0.7789 0.7797
3643.281034 0.7801 0.7804 0.7807 0.7809 0.7814
3646.524778 0.7819 0.7824 0.7829 0.7832 0.7835
3649.768523 0.7837 0.7840 0.7840 0.7840 0.7840
3653.012267 0.7840 0.7840 0.7840 0.7840 0.7840
3656.256012 0.7837 0.7835 0.7832 0.7830 0.7830
3659.499756 0.7830 0.7830 0.7830 0.7830 0.7830
3662.743501 0.7830 0.7829 0.7826 0.7824 0.7821
3665.987245 0.7819 0.7816 0.7813 0.7811 0.7810
3669.230990 0.7810 0.7810 0.7810 0.7810 0.7810
3672.474734 0.7810 0.7810 0.7805 0.7800 0.7795
3675.718478 0.7790 0.7787 0.7785 0.7782 0.7779
3678.962223 0.7766 0.7753 0.7740 0.7728 0.7721
3682.205967 0.7713 0.7705 0.7698 0.7693 0.7688
3685.449712 0.7683 0.7673 0.7655 0.7637 0.7619
3688.693456 0.7610 0.7610 0.7610 0.7610 0.7622
3691.937201 0.7640 0.7658 0.7676 0.7684 0.7689
3695.180945 0.7694 0.7699 0.7718 0.7739 0.7759
3698.424690 0.7780 0.7783 0.7785 0.7788 0.7790
3701.668434 0.7796 0.7801 0.7806 0.7811 0.7816
3704.912178 0.7821 0.7826 0.7831 0.7833 0.7836
3708.155923 0.7838 0.7840 0.7840 0.7840 0.7840
3711.399667 0.7841 0.7844 0.7846 0.7849 0.7852
3714.643412 0.7854 0.7857 0.7859 0.7860 0.7860
3717.887156 0.7860 0.7860 0.7860 0.7860 0.7860
3721.130901 0.7860 0.7860 0.7860 0.7860 0.7860
3724.374645 0.7860 0.7860 0.7860 0.7860 0.7857
3727.618390 0.7854 0.7852 0.7849 0.7847 0.7844
3730.862134 0.7842 0.7840 0.7840 0.7840 0.7840
3734.105878 0.7839 0.7836 0.7834 0.7831 0.7830
3737.349623 0.7830 0.7830 0.7830 0.7830 0.7830
3740.593367 0.7830 0.7830 0.7830 0.7830 0.7830
3743.837112 0.7830 0.7830 0.7830 0.7830 0.7830
3747.080856 0.7830 0.7830 0.7830 0.7830 0.7833
3750.324601 0.7836 0.7838 0.7842 0.7847 0.7852
3753.568345 0.7857 0.7860 0.7860 0.7860 0.7860
3756.812090 0.7860 0.7860 0.7860 0.7860 0.7862
3760.055834 0.7864 0.7867 0.7869 0.7872 0.7874
3763.299578 0.7877 0.7880 0.7880 0.7880 0.7880
3766.543323 0.7880 0.7880 0.7880 0.7880 0.7880
3769.787067 0.7880 0.7880 0.7880 0.7880 0.7880
3773.030812 0.7880 0.7880 0.7879 0.7873 0.7868
3776.274556 0.7863 0.7859 0.7856 0.7854 0.7851
3779.518301 0.7847 0.7842 0.7837 0.7832 0.7827
3782.762045 0.7822 0.7817 0.7812 0.7805 0.7797
3786.005790 0.7789 0.7781 0.7778 0.7775 0.7773
3789.249534 0.7770 0.7768 0.7765 0.7762 0.7760
3792.493278 0.7757 0.7755 0.7752 0.7750 0.7750
3795.737023 0.7750 0.7750 0.7751 0.7757 0.7762
3798.980767 0.7767 0.7770 0.7770 0.7770 0.7770
3802.224512 0.7771 0.7774 0.7776 0.7779 0.7785
3805.468256 0.7792 0.7800 0.7808 0.7814 0.7819
3808.712001 0.7824 0.7829 0.7832 0.7835 0.7837
3811.955745 0.7840 0.7842 0.7845 0.7847 0.7850
3815.199490 0.7853 0.7855 0.7858 0.7860 0.7860
3818.443234 0.7860 0.7860 0.7860 0.7860 0.7860
3821.686978 0.7860 0.7860 0.7860 0.7860 0.7860
3824.930723 0.7860 0.7860 0.7860 0.7860 0.7860
3828.174467 0.7860 0.7860 0.7860 0.7858 0.7856
3831.418212 0.7853 0.7851 0.7850 0.7850 0.7850
3834.661956 0.7850 0.7845 0.7840 0.7835 0.7830
3837.905701 0.7830 0.7830 0.7830 0.7829 0.7824
3841.149445 0.7819 0.7814 0.7809 0.7807 0.7804
3844.393190 0.7802 0.7800 0.7800 0.7800 0.7800
3847.636934 0.7799 0.7796 0.7794 0.7791 0.7792
3850.880678 0.7794 0.7797 0.7799 0.7802 0.7804
3854.124423 0.7807 0.7809 0.7810 0.7810 0.7810
3857.368167 0.7810 0.7810 0.7810 0.7810 0.7810
3860.611912 0.7813 0.7815 0.7818 0.7820 0.7823
3863.855656 0.7825 0.7828 0.7830 0.7830 0.7830
3867.099401 0.7830 0.7830 0.7830 0.7830 0.7830
3870.343145 0.7831 0.7834 0.7836 0.7839 0.7840
3873.586890 0.7840 0.7840 0.7840 0.7842 0.7844
3876.830634 0.7847 0.7849 0.7852 0.7855 0.7857
3880.074378 0.7860 0.7860 0.7860 0.7860 0.7860
3883.318123 0.7860 0.7860 0.7860 0.7860 0.7863
3886.561867 0.7865 0.7868 0.7870 0.7870 0.7870
3889.805612 0.7870 0.7870 0.7870 0.7870 0.7870
3893.049356 0.7870 0.7870 0.7870 0.7870 0.7870
3896.293101 0.7870 0.7870 0.7870 0.7868 0.7866
3899.536845 0.7863 0.7861 0.7860 0.7860 0.7860
3902.780590 0.7860 0.7860 0.7860 0.7860 0.7860
3906.024334 0.7857 0.7855 0.7852 0.7850 0.7850
3909.268078 0.7850 0.7850 0.7850 0.7850 0.7850
3912.511823 0.7850 0.7850 0.7850 0.7850 0.7850
3915.755567 0.7849 0.7846 0.7844 0.7841 0.7841
3918.999312 0.7844 0.7847 0.7849 0.7848 0.7846
3922.243056 0.7843 0.7841 0.7840 0.7840 0.7840
3925.486801 0.7840 0.7838 0.7835 0.7833 0.7830
3928.730545 0.7825 0.7820 0.7815 0.7810 0.7807
3931.974290 0.7805 0.7802 0.7799 0.7797 0.7794
3935.218034 0.7792 0.7788 0.7783 0.7778 0.7773
3938.461778 0.7769 0.7766 0.7764 0.7761 0.7759
3941.705523 0.7756 0.7753 0.7751 0.7750 0.7750
3944.949267 0.7750 0.7750 0.7750 0.7750 0.7750
3948.193012 0.7750 0.7748 0.7745 0.7743 0.7740
3951.436756 0.7740 0.7740 0.7740 0.7740 0.7734
3954.680501 0.7729 0.7724 0.7720 0.7717 0.7714
3957.924245 0.7712 0.7708 0.7703 0.7698 0.7693
3961.167990 0.7685 0.7672 0.7659 0.7646 0.7636
3964.411734 0.7628 0.7621 0.7613 0.7605 0.7597
3967.655478 0.7590 0.7582 0.7580 0.7580 0.7580
3970.899223 0.7580 0.7576 0.7570 0.7565 0.7560
3974.142967 0.7560 0.7560 0.7560 0.7560 0.7560
3977.386712 0.7560 0.7560
##END=
