##TITLE=METHANOL
##JCAMP-DX=4.24
##DATA TYPE=INFRARED SPECTRUM
##CLASS=COBLENTZ
##ORIGIN=DOW CHEMICAL COMPANY
##OWNER=COBLENTZ SOCIETY
Collection (C) 2007 copyright by the U.S. Secretary of Commerce
on behalf of the United States of America. All rights reserved.
##DATE=1964
##CAS REGISTRY NO=67-56-1
##MOLFORM=CH4O
##SOURCE REFERENCE=COBLENTZ NO. 8791
##$NIST SOURCE=COBLENTZ
##$NIST IMAGE=cob-r8791
##SPECTROMETER/DATA SYSTEM=DOW KBr FOREPRISM-GRATING
##INSTRUMENT PARAMETERS=GRATING CHANGED AT 5.0, 7.5, 15.0 MICRON
##STATE=GAS (70 mmHg, N2 ADDED, TOTAL PRESSURE 600 mmHg)
##PATH LENGTH=5 CM
##SAMPLING PROCEDURE=TRANSMISSION
##RESOLUTION=2
##DATA PROCESSING=DIGITIZED BY NIST FROM HARD COPY (FROM TWO SEGMENTS)
##XUNITS=1/CM
##YUNITS=TRANSMITTANCE
##XFACTOR=1.000000
##YFACTOR=1
##DELTAX=0.937503
##FIRSTX=463.438
##LASTX=3806.57
##FIRSTY=0.939
##MAXX=3806.57
##MINX=463.438
##MAXY=0.998
##MINY=0.0171553
##NPOINTS=3567
##XYDATA=(X++(Y..Y))
463.438000 0.9390 0.9400 0.9400 0.9400 0.9400
468.125516 0.9400 0.9400 0.9390 0.9390 0.9390
472.813031 0.9370 0.9360 0.9340 0.9330 0.9270
477.500547 0.9260 0.9240 0.9240 0.9270 0.9300
482.188063 0.9330 0.9330 0.9420 0.9420 0.9400
486.875579 0.9400 0.9390 0.9390 0.9390 0.9390
491.563094 0.9370 0.9370 0.9430 0.9450 0.9450
496.250610 0.9430 0.9420 0.9390 0.9370 0.9370
500.938126 0.9370 0.9360 0.9370 0.9370 0.9370
505.625641 0.9360 0.9360 0.9340 0.9340 0.9340
510.313157 0.9300 0.9260 0.9240 0.9290 0.9400
515.000673 0.9450 0.9460 0.9450 0.9420 0.9400
519.688189 0.9370 0.9370 0.9360 0.9360 0.9430
524.375704 0.9470 0.9470 0.9490 0.9490 0.9500
529.063220 0.9520 0.9500 0.9500 0.9460 0.9450
533.750736 0.9450 0.9460 0.9470 0.9490 0.9500
538.438251 0.9520 0.9520 0.9530 0.9520 0.9470
543.125767 0.9290 0.9260 0.9270 0.9360 0.9430
547.813283 0.9490 0.9520 0.9550 0.9520 0.9470
552.500799 0.9141 0.9110 0.9140 0.9339 0.9499
557.188314 0.9550 0.9580 0.9580 0.9580 0.9550
561.875830 0.9550 0.9560 0.9560 0.9580 0.9580
566.563346 0.9590 0.9590 0.9590 0.9590 0.9580
571.250861 0.9580 0.9580 0.9600 0.9600 0.9590
575.938377 0.9560 0.9490 0.9430 0.9420 0.9430
580.625893 0.9520 0.9550 0.9620 0.9680 0.9690
585.313409 0.9660 0.9580 0.9560 0.9580 0.9660
590.000924 0.9690 0.9720 0.9730 0.9760 0.9760
594.688440 0.9710 0.9710 0.9710 0.9710 0.9720
599.375956 0.9730 0.9730 0.9730 0.9710 0.9660
604.063471 0.9630 0.9660 0.9710 0.9780 0.9780
608.750987 0.9790 0.9790 0.9790 0.9810 0.9810
613.438503 0.9760 0.9730 0.9710 0.9730 0.9790
618.126019 0.9810 0.9810 0.9750 0.9730 0.9730
622.813534 0.9790 0.9820 0.9820 0.9810 0.9790
627.501050 0.9790 0.9780 0.9810 0.9820 0.9850
632.188566 0.9880 0.9890 0.9890 0.9860 0.9860
636.876081 0.9860 0.9860 0.9860 0.9860 0.9880
641.563597 0.9880 0.9890 0.9890 0.9880 0.9850
646.251113 0.9850 0.9840 0.9840 0.9820 0.9810
650.938629 0.9810 0.9790 0.9790 0.9810 0.9820
655.626144 0.9790 0.9760 0.9760 0.9780 0.9810
660.313660 0.9810 0.9820 0.9840 0.9840 0.9860
665.001176 0.9880 0.9890 0.9890 0.9890 0.9910
669.688691 0.9910 0.9910 0.9910 0.9910 0.9910
674.376207 0.9920 0.9940 0.9940 0.9940 0.9940
679.063723 0.9940 0.9920 0.9920 0.9910 0.9910
683.751239 0.9910 0.9910 0.9910 0.9910 0.9890
688.438754 0.9890 0.9890 0.9890 0.9910 0.9910
693.126270 0.9910 0.9880 0.9840 0.9810 0.9790
697.813786 0.9780 0.9780 0.9810 0.9810 0.9820
702.501301 0.9840 0.9880 0.9910 0.9920 0.9920
707.188817 0.9920 0.9920 0.9920 0.9920 0.9920
711.876333 0.9950 0.9950 0.9950 0.9950 0.9950
716.563849 0.9940 0.9940 0.9940 0.9940 0.9940
721.251364 0.9940 0.9940 0.9950 0.9970 0.9980
725.938880 0.9980 0.9980 0.9980 0.9980 0.9970
730.626396 0.9940 0.9920 0.9920 0.9950 0.9950
735.313911 0.9950 0.9940 0.9920 0.9890 0.9820
740.001427 0.9790 0.9730 0.9730 0.9760 0.9850
744.688943 0.9890 0.9910 0.9910 0.9920 0.9920
749.376459 0.9920 0.9920 0.9920 0.9920 0.9920
754.063974 0.9920 0.9910 0.9910 0.9910 0.9910
758.751490 0.9910 0.9890 0.9910 0.9910 0.9920
763.439006 0.9910 0.9920 0.9920 0.9920 0.9920
768.126521 0.9920 0.9920 0.9920 0.9920 0.9940
772.814037 0.9940 0.9950 0.9940 0.9940 0.9940
777.501553 0.9920 0.9920 0.9910 0.9890 0.9890
782.189069 0.9860 0.9860 0.9850 0.9880 0.9890
786.876584 0.9910 0.9920 0.9920 0.9940 0.9950
791.564100 0.9950 0.9970 0.9950 0.9950 0.9950
796.251616 0.9940 0.9940 0.9940 0.9920 0.9920
800.939131 0.9920 0.9910 0.9910 0.9910 0.9910
805.626647 0.9910 0.9920 0.9920 0.9940 0.9920
810.314163 0.9920 0.9920 0.9920 0.9920 0.9920
815.001679 0.9920 0.9920 0.9920 0.9920 0.9920
819.689194 0.9920 0.9920 0.9920 0.9910 0.9890
824.376710 0.9880 0.9860 0.9880 0.9890 0.9910
829.064226 0.9910 0.9920 0.9940 0.9940 0.9920
833.751741 0.9910 0.9890 0.9880 0.9860 0.9860
838.439257 0.9850 0.9860 0.9860 0.9860 0.9880
843.126773 0.9910 0.9920 0.9940 0.9940 0.9940
847.814289 0.9920 0.9920 0.9920 0.9920 0.9920
852.501804 0.9940 0.9940 0.9950 0.9950 0.9950
857.189320 0.9950 0.9940 0.9940 0.9920 0.9920
861.876836 0.9920 0.9920 0.9920 0.9920 0.9940
866.564351 0.9940 0.9940 0.9940 0.9940 0.9920
871.251867 0.9910 0.9910 0.9890 0.9890 0.9890
875.939383 0.9890 0.9890 0.9920 0.9920 0.9920
880.626899 0.9940 0.9940 0.9940 0.9950 0.9940
885.314414 0.9940 0.9940 0.9940 0.9920 0.9920
890.001930 0.9910 0.9910 0.9910 0.9910 0.9910
894.689446 0.9910 0.9910 0.9890 0.9890 0.9880
899.376961 0.9880 0.9880 0.9890 0.9880 0.9880
904.064477 0.9880 0.9880 0.9880 0.9880 0.9880
908.751993 0.9880 0.9880 0.9860 0.9860 0.9850
913.439509 0.9840 0.9840 0.9840 0.9840 0.9840
918.127024 0.9840 0.9840 0.9840 0.9820 0.9820
922.814540 0.9810 0.9790 0.9790 0.9790 0.9780
927.502056 0.9780 0.9760 0.9750 0.9730 0.9730
932.189571 0.9720 0.9710 0.9710 0.9710 0.9720
936.877087 0.9720 0.9720 0.9720 0.9720 0.9710
941.564603 0.9690 0.9680 0.9660 0.9650 0.9650
946.252119 0.9630 0.9630 0.9630 0.9630 0.9620
950.939634 0.9600 0.9600 0.9560 0.9500 0.9430
955.627150 0.9370 0.9340 0.9340 0.9340 0.9300
960.314666 0.9240 0.9170 0.9100 0.9030 0.8980
965.002181 0.8940 0.8910 0.8850 0.8760 0.8720
969.689697 0.8680 0.8620 0.8460 0.8290 0.8110
974.377213 0.7970 0.7850 0.7710 0.7531 0.7430
979.064729 0.7330 0.7120 0.6870 0.6590 0.6320
983.752244 0.6170 0.6020 0.5711 0.5411 0.5091
988.439760 0.4930 0.4760 0.4440 0.4120 0.3820
993.127276 0.3660 0.3500 0.3211 0.2931 0.2671
997.814791 0.2430 0.2320 0.2210 0.2010 0.1830
1002.502307 0.1690 0.1600 0.1460 0.1370 0.1360
1007.189823 0.1310 0.1270 0.1240 0.1170 0.1140
1011.877339 0.1140 0.1120 0.1120 0.1120 0.1150
1016.564854 0.1150 0.1200 0.1200 0.1250 0.1310
1021.252370 0.1560 0.1570 0.1750 0.1910 0.2059
1025.939886 0.2380 0.2530 0.2670 0.2820 0.2930
1030.627401 0.3030 0.2241 0.1432 0.0622 0.0172
1035.314917 0.1051 0.1501 0.2380 0.2830 0.4129
1040.002433 0.4090 0.3481 0.2871 0.2541 0.2211
1044.689949 0.1540 0.1380 0.1230 0.1070 0.0990
1049.377464 0.0920 0.0760 0.0600 0.0570 0.0530
1054.064980 0.0500 0.0500 0.0470 0.0470 0.0490
1058.752496 0.0500 0.0500 0.0540 0.0590 0.0620
1063.440011 0.0680 0.0810 0.0850 0.1080 0.1200
1068.127527 0.1460 0.1590 0.1730 0.1959 0.2558
1072.815043 0.2831 0.3060 0.3310 0.3800 0.4100
1077.502559 0.4899 0.5200 0.5390 0.5649 0.6427
1082.190074 0.6781 0.7121 0.7690 0.7970 0.8210
1086.877590 0.8430 0.8720 0.8880 0.8920 0.9000
1091.565106 0.9030 0.9040 0.9040 0.9040 0.9010
1096.252621 0.9030 0.9070 0.9110 0.9140 0.9160
1100.940137 0.9170 0.9200 0.9210 0.9240 0.9240
1105.627653 0.9180 0.9180 0.9200 0.9200 0.9210
1110.315169 0.9230 0.9240 0.9260 0.9260 0.9210
1115.002684 0.9210 0.9230 0.9240 0.9290 0.9330
1119.690200 0.9340 0.9370 0.9370 0.9400 0.9420
1124.377716 0.9430 0.9450 0.9450 0.9460 0.9470
1129.065231 0.9490 0.9500 0.9520 0.9530 0.9550
1133.752747 0.9550 0.9530 0.9500 0.9470 0.9460
1138.440263 0.9460 0.9460 0.9470 0.9490 0.9520
1143.127779 0.9520 0.9490 0.9470 0.9490 0.9500
1147.815294 0.9550 0.9560 0.9560 0.9560 0.9580
1152.502810 0.9580 0.9590 0.9590 0.9590 0.9590
1157.190326 0.9600 0.9600 0.9600 0.9600 0.9600
1161.877841 0.9600 0.9590 0.9590 0.9580 0.9580
1166.565357 0.9580 0.9590 0.9590 0.9600 0.9600
1171.252873 0.9630 0.9630 0.9630 0.9620 0.9620
1175.940389 0.9590 0.9580 0.9560 0.9550 0.9520
1180.627904 0.9490 0.9470 0.9430 0.9400 0.9400
1185.315420 0.9420 0.9420 0.9420 0.9430 0.9420
1190.002936 0.9400 0.9400 0.9400 0.9400 0.9390
1194.690451 0.9370 0.9370 0.9340 0.9330 0.9300
1199.377967 0.9240 0.9230 0.9210 0.9200 0.9180
1204.065483 0.9110 0.9080 0.9080 0.9080 0.9100
1208.752999 0.9080 0.9080 0.9080 0.9080 0.9030
1213.440514 0.9010 0.9000 0.8970 0.8910 0.8910
1218.128030 0.9000 0.9040 0.9110 0.9110 0.9080
1222.815546 0.9040 0.9030 0.9010 0.8980 0.8920
1227.503061 0.8910 0.8940 0.8950 0.8970 0.8980
1232.190577 0.9070 0.9140 0.9040 0.9000 0.8940
1236.878093 0.9000 0.9030 0.8980 0.8940 0.8880
1241.565609 0.8840 0.8740 0.8720 0.8710 0.8790
1246.253124 0.8810 0.8840 0.8850 0.8840 0.8750
1250.940640 0.8740 0.8710 0.8650 0.8620 0.8610
1255.628156 0.8610 0.8590 0.8590 0.8580 0.8560
1260.315671 0.8560 0.8530 0.8530 0.8530 0.8530
1265.003187 0.8520 0.8500 0.8500 0.8500 0.8500
1269.690703 0.8500 0.8500 0.8500 0.8500 0.8500
1274.378219 0.8500 0.8500 0.8500 0.8500 0.8500
1279.065734 0.8520 0.8500 0.8490 0.8490 0.8490
1283.753250 0.8460 0.8420 0.8400 0.8390 0.8370
1288.440766 0.8370 0.8370 0.8360 0.8350 0.8330
1293.128281 0.8290 0.8190 0.8070 0.7980 0.7950
1297.815797 0.7950 0.7950 0.7950 0.7950 0.7910
1302.503313 0.7870 0.7820 0.7770 0.7740 0.7680
1307.190829 0.7650 0.7610 0.7560 0.7520 0.7460
1311.878344 0.7460 0.7520 0.7560 0.7560 0.7560
1316.565860 0.7510 0.7490 0.7430 0.7350 0.7260
1321.253376 0.7170 0.7120 0.7000 0.6940 0.6930
1325.940891 0.6960 0.6970 0.7010 0.7070 0.7120
1330.628407 0.7170 0.7250 0.7190 0.7160 0.7160
1335.315923 0.7138 0.6569 0.6320 0.6571 0.7380
1340.003439 0.7450 0.7430 0.7400 0.7200 0.6971
1344.690954 0.6740 0.6741 0.6940 0.7010 0.7060
1349.378470 0.6580 0.6090 0.6000 0.6429 0.6570
1354.065986 0.6700 0.6810 0.6780 0.6640 0.6520
1358.753501 0.6430 0.6410 0.6290 0.6150 0.6150
1363.441017 0.6130 0.6150 0.6150 0.6150 0.6160
1368.128533 0.6160 0.6170 0.6170 0.6170 0.6190
1372.816049 0.6190 0.6100 0.6020 0.5900 0.6030
1377.503564 0.6160 0.6190 0.6220 0.6250 0.6280
1382.191080 0.6280 0.6290 0.6300 0.6380 0.6430
1386.878596 0.6450 0.6480 0.6490 0.6570 0.6580
1391.566111 0.6650 0.6740 0.6840 0.6930 0.6970
1396.253627 0.7040 0.7070 0.7100 0.7160 0.7200
1400.941143 0.7230 0.7270 0.7360 0.7460 0.7560
1405.628659 0.7590 0.7640 0.7680 0.7740 0.7770
1410.316174 0.7800 0.7820 0.7810 0.7800 0.7750
1415.003690 0.7720 0.7680 0.7680 0.7740 0.7910
1419.691206 0.7940 0.7940 0.7970 0.7980 0.8060
1424.378721 0.8070 0.8080 0.8100 0.8080 0.8060
1429.066237 0.8100 0.8110 0.8140 0.8110 0.8110
1433.753753 0.8100 0.8110 0.8130 0.8140 0.8160
1438.441269 0.8200 0.8210 0.8260 0.8300 0.8360
1443.128784 0.8430 0.8480 0.8490 0.8520 0.8590
1447.816300 0.8620 0.8650 0.8750 0.8880 0.8910
1452.503816 0.8920 0.8840 0.8660 0.8490 0.7682
1457.191331 0.7419 0.7159 0.6802 0.7581 0.7930
1461.878847 0.8170 0.8260 0.8290 0.8260 0.8230
1466.566363 0.8260 0.8290 0.8320 0.8390 0.8450
1471.253879 0.8450 0.8360 0.8210 0.8190 0.8170
1475.941394 0.8160 0.8160 0.8210 0.8200 0.8190
1480.628910 0.8010 0.7980 0.8040 0.8200 0.8370
1485.316426 0.8530 0.8590 0.8590 0.8610 0.8620
1490.003941 0.8620 0.8630 0.8620 0.8660 0.8720
1494.691457 0.8740 0.8780 0.8810 0.8810 0.8810
1499.378973 0.8750 0.8690 0.8680 0.8660 0.8790
1504.066489 0.8850 0.8870 0.8880 0.8880 0.8880
1508.754004 0.8880 0.8880 0.8870 0.8870 0.8870
1513.441520 0.8850 0.8840 0.8840 0.8850 0.8870
1518.129036 0.8870 0.8870 0.8880 0.8880 0.8880
1522.816551 0.8900 0.8900 0.8910 0.8940 0.8940
1527.504067 0.8950 0.8950 0.8950 0.8970 0.8970
1532.191583 0.8980 0.9000 0.9010 0.9010 0.9010
1536.879099 0.9010 0.9030 0.9030 0.9040 0.9050
1541.566614 0.9070 0.9070 0.9080 0.9100 0.9130
1546.254130 0.9140 0.9160 0.9170 0.9180 0.9200
1550.941646 0.9210 0.9230 0.9230 0.9230 0.9230
1555.629161 0.9230 0.9240 0.9260 0.9270 0.9270
1560.316677 0.9290 0.9300 0.9310 0.9330 0.9340
1565.004193 0.9360 0.9370 0.9390 0.9400 0.9420
1569.691709 0.9430 0.9430 0.9450 0.9460 0.9460
1574.379224 0.9470 0.9470 0.9490 0.9490 0.9490
1579.066740 0.9500 0.9500 0.9520 0.9520 0.9530
1583.754256 0.9530 0.9530 0.9550 0.9550 0.9560
1588.441771 0.9560 0.9580 0.9580 0.9590 0.9590
1593.129287 0.9590 0.9590 0.9590 0.9590 0.9600
1597.816803 0.9600 0.9600 0.9600 0.9600 0.9600
1602.504319 0.9600 0.9600 0.9600 0.9620 0.9620
1607.191834 0.9620 0.9620 0.9620 0.9620 0.9620
1611.879350 0.9630 0.9630 0.9630 0.9630 0.9630
1616.566866 0.9630 0.9650 0.9650 0.9650 0.9660
1621.254381 0.9660 0.9660 0.9660 0.9680 0.9680
1625.941897 0.9680 0.9680 0.9690 0.9690 0.9690
1630.629413 0.9690 0.9690 0.9690 0.9710 0.9710
1635.316929 0.9710 0.9710 0.9710 0.9710 0.9720
1640.004444 0.9720 0.9720 0.9720 0.9720 0.9720
1644.691960 0.9720 0.9720 0.9720 0.9720 0.9720
1649.379476 0.9720 0.9720 0.9720 0.9720 0.9720
1654.066991 0.9720 0.9720 0.9720 0.9720 0.9730
1658.754507 0.9730 0.9730 0.9730 0.9730 0.9730
1663.442023 0.9730 0.9730 0.9730 0.9730 0.9730
1668.129539 0.9730 0.9730 0.9730 0.9730 0.9730
1672.817054 0.9730 0.9730 0.9730 0.9730 0.9730
1677.504570 0.9730 0.9730 0.9730 0.9730 0.9730
1682.192086 0.9730 0.9730 0.9730 0.9730 0.9730
1686.879601 0.9730 0.9730 0.9730 0.9730 0.9730
1691.567117 0.9730 0.9720 0.9720 0.9720 0.9720
1696.254633 0.9710 0.9710 0.9710 0.9690 0.9690
1700.942149 0.9680 0.9690 0.9710 0.9710 0.9720
1705.629664 0.9720 0.9720 0.9730 0.9730 0.9730
1710.317180 0.9730 0.9730 0.9730 0.9720 0.9720
1715.004696 0.9720 0.9710 0.9710 0.9720 0.9720
1719.692211 0.9720 0.9710 0.9710 0.9710 0.9710
1724.379727 0.9710 0.9690 0.9690 0.9690 0.9690
1729.067243 0.9680 0.9680 0.9680 0.9680 0.9680
1733.754759 0.9680 0.9680 0.9680 0.9680 0.9680
1738.442274 0.9680 0.9680 0.9680 0.9690 0.9690
1743.129790 0.9710 0.9710 0.9710 0.9710 0.9710
1747.817306 0.9710 0.9720 0.9720 0.9720 0.9720
1752.504821 0.9720 0.9720 0.9720 0.9720 0.9720
1757.192337 0.9720 0.9710 0.9710 0.9690 0.9690
1761.879853 0.9680 0.9680 0.9680 0.9660 0.9660
1766.567369 0.9660 0.9660 0.9660 0.9660 0.9650
1771.254884 0.9660 0.9660 0.9680 0.9680 0.9690
1775.942400 0.9710 0.9710 0.9710 0.9710 0.9720
1780.629916 0.9720 0.9720 0.9720 0.9720 0.9720
1785.317431 0.9720 0.9730 0.9730 0.9730 0.9730
1790.004947 0.9730 0.9730 0.9750 0.9750 0.9750
1794.692463 0.9750 0.9750 0.9750 0.9750 0.9750
1799.379979 0.9750 0.9750 0.9750 0.9760 0.9760
1804.067494 0.9760 0.9760 0.9760 0.9760 0.9760
1808.755010 0.9760 0.9760 0.9760 0.9760 0.9760
1813.442526 0.9760 0.9780 0.9780 0.9780 0.9780
1818.130041 0.9780 0.9780 0.9780 0.9780 0.9780
1822.817557 0.9780 0.9780 0.9780 0.9780 0.9780
1827.505073 0.9780 0.9780 0.9780 0.9780 0.9780
1832.192589 0.9780 0.9780 0.9780 0.9780 0.9780
1836.880104 0.9780 0.9780 0.9780 0.9780 0.9760
1841.567620 0.9760 0.9760 0.9760 0.9750 0.9750
1846.255136 0.9750 0.9750 0.9750 0.9750 0.9750
1850.942651 0.9750 0.9750 0.9750 0.9760 0.9760
1855.630167 0.9760 0.9760 0.9760 0.9760 0.9760
1860.317683 0.9760 0.9760 0.9760 0.9760 0.9760
1865.005199 0.9760 0.9760 0.9760 0.9760 0.9780
1869.692714 0.9780 0.9780 0.9780 0.9780 0.9780
1874.380230 0.9780 0.9780 0.9780 0.9780 0.9780
1879.067746 0.9780 0.9780 0.9780 0.9780 0.9780
1883.755261 0.9760 0.9760 0.9760 0.9760 0.9760
1888.442777 0.9760 0.9760 0.9760 0.9760 0.9760
1893.130293 0.9760 0.9760 0.9760 0.9760 0.9760
1897.817809 0.9760 0.9760 0.9760 0.9760 0.9760
1902.505324 0.9760 0.9760 0.9760 0.9760 0.9760
1907.192840 0.9760 0.9760 0.9760 0.9760 0.9760
1911.880356 0.9760 0.9760 0.9760 0.9760 0.9760
1916.567871 0.9780 0.9780 0.9780 0.9780 0.9780
1921.255387 0.9780 0.9780 0.9780 0.9780 0.9780
1925.942903 0.9780 0.9780 0.9780 0.9780 0.9780
1930.630419 0.9780 0.9780 0.9780 0.9760 0.9760
1935.317934 0.9760 0.9760 0.9760 0.9760 0.9760
1940.005450 0.9760 0.9750 0.9750 0.9750 0.9750
1944.692966 0.9750 0.9750 0.9750 0.9760 0.9760
1949.380481 0.9760 0.9780 0.9790 0.9780 0.9790
1954.067997 0.9790 0.9790 0.9790 0.9790 0.9790
1958.755513 0.9790 0.9790 0.9790 0.9790 0.9790
1963.443029 0.9790 0.9790 0.9790 0.9790 0.9790
1968.130544 0.9790 0.9790 0.9790 0.9790 0.9790
1972.818060 0.9790 0.9790 0.9790 0.9790 0.9790
1977.505576 0.9790 0.9790 0.9790 0.9780 0.9780
1982.193091 0.9780 0.9780 0.9780 0.9780 0.9780
1986.880607 0.9780 0.9780 0.9780 0.9780 0.9760
1991.568123 0.9760 0.9760 0.9760 0.9760 0.9760
1996.255639 0.9750 0.9750 0.9750 0.9750 0.9730
2000.943154 0.9725 0.9720 0.9720 0.9720 0.9720
2005.630670 0.9720 0.9715 0.9710 0.9710 0.9710
2010.318186 0.9710 0.9710 0.9700 0.9690 0.9690
2015.005701 0.9690 0.9685 0.9680 0.9656 0.9630
2019.693217 0.9625 0.9620 0.9610 0.9600 0.9595
2024.380733 0.9590 0.9575 0.9560 0.9545 0.9530
2029.068249 0.9530 0.9530 0.9525 0.9520 0.9510
2033.755764 0.9500 0.9495 0.9490 0.9490 0.9490
2038.443280 0.9480 0.9470 0.9470 0.9470 0.9465
2043.130796 0.9460 0.9460 0.9460 0.9460 0.9460
2047.818311 0.9474 0.9489 0.9495 0.9500 0.9500
2052.505827 0.9500 0.9500 0.9500 0.9495 0.9490
2057.193343 0.9447 0.9402 0.9353 0.9303 0.9253
2061.880859 0.9203 0.9130 0.9055 0.8980 0.8905
2066.568374 0.8998 0.9103 0.9333 0.9572 0.9590
2071.255890 0.9590 0.9562 0.9532 0.9456 0.9375
2075.943406 0.9291 0.9206 0.9154 0.9104 0.9086
2080.630921 0.9071 0.9010 0.8945 0.8926 0.8911
2085.318437 0.8942 0.8977 0.8994 0.9009 0.9019
2090.005953 0.9029 0.9035 0.9040 0.9113 0.9193
2094.693469 0.9246 0.9296 0.9332 0.9367 0.9465
2099.380984 0.9570 0.9585 0.9590 0.9603 0.9618
2104.068500 0.9633 0.9648 0.9668 0.9688 0.9703
2108.756016 0.9718 0.9724 0.9729 0.9730 0.9730
2113.443531 0.9730 0.9730 0.9730 0.9730 0.9730
2118.131047 0.9730 0.9726 0.9721 0.9720 0.9720
2122.818563 0.9716 0.9711 0.9688 0.9663 0.9660
2127.506079 0.9660 0.9660 0.9660 0.9660 0.9660
2132.193594 0.9660 0.9660 0.9673 0.9688 0.9699
2136.881110 0.9709 0.9714 0.9719 0.9724 0.9729
2141.568626 0.9739 0.9749 0.9750 0.9750 0.9750
2146.256141 0.9750 0.9750 0.9750 0.9750 0.9750
2150.943657 0.9750 0.9750 0.9750 0.9750 0.9750
2155.631173 0.9750 0.9750 0.9750 0.9750 0.9750
2160.318689 0.9750 0.9750 0.9750 0.9750 0.9750
2165.006204 0.9750 0.9750 0.9750 0.9754 0.9759
2169.693720 0.9760 0.9760 0.9760 0.9760 0.9760
2174.381236 0.9760 0.9760 0.9760 0.9760 0.9760
2179.068751 0.9760 0.9760 0.9760 0.9760 0.9768
2183.756267 0.9778 0.9780 0.9780 0.9780 0.9780
2188.443783 0.9780 0.9780 0.9780 0.9780 0.9780
2193.131299 0.9780 0.9780 0.9780 0.9784 0.9789
2197.818814 0.9790 0.9790 0.9790 0.9790 0.9790
2202.506330 0.9790 0.9790 0.9790 0.9790 0.9790
2207.193846 0.9790 0.9790 0.9790 0.9790 0.9790
2211.881361 0.9790 0.9790 0.9790 0.9790 0.9790
2216.568877 0.9790 0.9790 0.9790 0.9790 0.9790
2221.256393 0.9790 0.9790 0.9790 0.9790 0.9790
2225.943909 0.9790 0.9790 0.9790 0.9790 0.9790
2230.631424 0.9790 0.9798 0.9808 0.9810 0.9810
2235.318940 0.9810 0.9810 0.9814 0.9819 0.9820
2240.006456 0.9820 0.9820 0.9820 0.9828 0.9838
2244.693971 0.9840 0.9840 0.9840 0.9840 0.9840
2249.381487 0.9840 0.9840 0.9840 0.9840 0.9840
2254.069003 0.9840 0.9840 0.9840 0.9840 0.9840
2258.756519 0.9840 0.9840 0.9840 0.9840 0.9840
2263.444034 0.9840 0.9840 0.9832 0.9823 0.9820
2268.131550 0.9820 0.9820 0.9820 0.9820 0.9820
2272.819066 0.9820 0.9820 0.9820 0.9820 0.9820
2277.506581 0.9820 0.9820 0.9820 0.9820 0.9820
2282.194097 0.9820 0.9820 0.9820 0.9820 0.9820
2286.881613 0.9820 0.9820 0.9820 0.9820 0.9820
2291.569129 0.9827 0.9837 0.9840 0.9840 0.9840
2296.256644 0.9840 0.9840 0.9840 0.9840 0.9840
2300.944160 0.9840 0.9840 0.9840 0.9840 0.9840
2305.631676 0.9840 0.9840 0.9840 0.9840 0.9840
2310.319191 0.9840 0.9840 0.9840 0.9840 0.9840
2315.006707 0.9840 0.9840 0.9840 0.9840 0.9840
2319.694223 0.9840 0.9840 0.9840 0.9840 0.9840
2324.381739 0.9840 0.9840 0.9840 0.9840 0.9840
2329.069254 0.9840 0.9840 0.9840 0.9840 0.9840
2333.756770 0.9840 0.9840 0.9840 0.9840 0.9840
2338.444286 0.9840 0.9840 0.9843 0.9848 0.9850
2343.131801 0.9850 0.9850 0.9850 0.9850 0.9850
2347.819317 0.9853 0.9858 0.9860 0.9860 0.9860
2352.506833 0.9860 0.9860 0.9860 0.9857 0.9852
2357.194349 0.9850 0.9850 0.9850 0.9850 0.9847
2361.881864 0.9842 0.9840 0.9840 0.9840 0.9840
2366.569380 0.9834 0.9824 0.9820 0.9820 0.9817
2371.256896 0.9812 0.9810 0.9810 0.9810 0.9810
2375.944411 0.9810 0.9810 0.9804 0.9794 0.9790
2380.631927 0.9790 0.9790 0.9790 0.9790 0.9790
2385.319443 0.9787 0.9782 0.9780 0.9780 0.9780
2390.006959 0.9780 0.9774 0.9764 0.9760 0.9760
2394.694474 0.9760 0.9760 0.9766 0.9776 0.9780
2399.381990 0.9780 0.9780 0.9780 0.9780 0.9780
2404.069506 0.9780 0.9780 0.9774 0.9764 0.9760
2408.757021 0.9760 0.9760 0.9760 0.9760 0.9760
2413.444537 0.9760 0.9760 0.9760 0.9760 0.9760
2418.132053 0.9760 0.9760 0.9760 0.9760 0.9760
2422.819569 0.9760 0.9760 0.9760 0.9760 0.9760
2427.507084 0.9760 0.9760 0.9760 0.9766 0.9776
2432.194600 0.9780 0.9780 0.9780 0.9780 0.9783
2436.882116 0.9788 0.9790 0.9790 0.9790 0.9790
2441.569631 0.9790 0.9790 0.9790 0.9790 0.9790
2446.257147 0.9790 0.9796 0.9806 0.9810 0.9810
2450.944663 0.9813 0.9818 0.9820 0.9820 0.9826
2455.632179 0.9836 0.9840 0.9840 0.9834 0.9824
2460.319694 0.9820 0.9820 0.9820 0.9820 0.9820
2465.007210 0.9820 0.9820 0.9820 0.9825 0.9836
2469.694726 0.9840 0.9840 0.9840 0.9840 0.9840
2474.382241 0.9840 0.9840 0.9840 0.9840 0.9840
2479.069757 0.9843 0.9848 0.9850 0.9850 0.9850
2483.757273 0.9850 0.9850 0.9850 0.9850 0.9850
2488.444789 0.9850 0.9850 0.9850 0.9850 0.9850
2493.132304 0.9850 0.9853 0.9858 0.9860 0.9860
2497.819820 0.9860 0.9860 0.9860 0.9860 0.9860
2502.507336 0.9860 0.9860 0.9860 0.9860 0.9860
2507.194851 0.9860 0.9860 0.9860 0.9860 0.9860
2511.882367 0.9860 0.9860 0.9860 0.9860 0.9860
2516.569883 0.9857 0.9852 0.9850 0.9850 0.9850
2521.257399 0.9850 0.9850 0.9850 0.9850 0.9850
2525.944914 0.9847 0.9842 0.9840 0.9840 0.9840
2530.632430 0.9840 0.9840 0.9840 0.9840 0.9840
2535.319946 0.9835 0.9825 0.9820 0.9820 0.9820
2540.007461 0.9820 0.9820 0.9820 0.9820 0.9820
2544.694977 0.9818 0.9813 0.9810 0.9810 0.9810
2549.382493 0.9810 0.9805 0.9795 0.9790 0.9790
2554.070009 0.9790 0.9790 0.9790 0.9790 0.9790
2558.757524 0.9790 0.9790 0.9790 0.9795 0.9805
2563.445040 0.9810 0.9810 0.9810 0.9810 0.9805
2568.132556 0.9795 0.9790 0.9790 0.9790 0.9790
2572.820071 0.9790 0.9790 0.9790 0.9790 0.9790
2577.507587 0.9790 0.9790 0.9790 0.9788 0.9783
2582.195103 0.9780 0.9780 0.9780 0.9780 0.9780
2586.882619 0.9780 0.9776 0.9766 0.9760 0.9760
2591.570134 0.9760 0.9760 0.9760 0.9760 0.9758
2596.257650 0.9753 0.9750 0.9750 0.9750 0.9750
2600.945166 0.9746 0.9736 0.9730 0.9730 0.9730
2605.632681 0.9730 0.9730 0.9730 0.9730 0.9730
2610.320197 0.9730 0.9730 0.9730 0.9730 0.9730
2615.007713 0.9730 0.9730 0.9730 0.9730 0.9730
2619.695229 0.9730 0.9730 0.9730 0.9730 0.9730
2624.382744 0.9730 0.9730 0.9730 0.9730 0.9730
2629.070260 0.9730 0.9730 0.9730 0.9730 0.9730
2633.757776 0.9730 0.9730 0.9730 0.9728 0.9723
2638.445291 0.9720 0.9720 0.9720 0.9720 0.9720
2643.132807 0.9720 0.9720 0.9720 0.9720 0.9720
2647.820323 0.9720 0.9720 0.9720 0.9720 0.9720
2652.507839 0.9720 0.9720 0.9720 0.9718 0.9713
2657.195354 0.9710 0.9710 0.9710 0.9710 0.9710
2661.882870 0.9710 0.9710 0.9710 0.9706 0.9696
2666.570386 0.9690 0.9690 0.9690 0.9690 0.9690
2671.257901 0.9690 0.9690 0.9690 0.9690 0.9690
2675.945417 0.9690 0.9690 0.9690 0.9690 0.9694
2680.632933 0.9704 0.9710 0.9710 0.9710 0.9710
2685.320449 0.9712 0.9717 0.9720 0.9720 0.9720
2690.007964 0.9720 0.9720 0.9720 0.9720 0.9720
2694.695480 0.9720 0.9720 0.9720 0.9720 0.9720
2699.382996 0.9720 0.9720 0.9720 0.9720 0.9720
2704.070511 0.9718 0.9713 0.9710 0.9710 0.9710
2708.758027 0.9710 0.9710 0.9710 0.9710 0.9710
2713.445543 0.9707 0.9697 0.9690 0.9690 0.9690
2718.133059 0.9690 0.9688 0.9683 0.9680 0.9680
2722.820574 0.9677 0.9667 0.9658 0.9653 0.9650
2727.508090 0.9650 0.9647 0.9637 0.9630 0.9630
2732.195606 0.9628 0.9623 0.9617 0.9607 0.9598
2736.883121 0.9594 0.9589 0.9584 0.9580 0.9580
2741.570637 0.9577 0.9567 0.9559 0.9554 0.9547
2746.258153 0.9537 0.9526 0.9511 0.9496 0.9481
2750.945669 0.9469 0.9464 0.9456 0.9441 0.9429
2755.633184 0.9424 0.9416 0.9401 0.9387 0.9377
2760.320700 0.9366 0.9351 0.9339 0.9334 0.9326
2765.008216 0.9311 0.9299 0.9294 0.9286 0.9271
2769.695731 0.9257 0.9247 0.9236 0.9221 0.9203
2774.383247 0.9178 0.9156 0.9141 0.9123 0.9099
2779.070763 0.9079 0.9074 0.9061 0.9026 0.8990
2783.758279 0.8950 0.8908 0.8858 0.8813 0.8782
2788.445794 0.8757 0.8747 0.8736 0.8721 0.8706
2793.133310 0.8691 0.8665 0.8605 0.8529 0.8399
2797.820826 0.8283 0.8213 0.8139 0.8049 0.7960
2802.508341 0.7876 0.7788 0.7694 0.7601 0.7515
2807.195857 0.7439 0.7394 0.7349 0.7304 0.7193
2811.883373 0.6864 0.6600 0.6555 0.6505 0.6441
2816.570889 0.6365 0.6250 0.6135 0.6020 0.5881
2821.258404 0.5651 0.5457 0.5398 0.5324 0.5198
2825.945920 0.5097 0.5082 0.5070 0.5070 0.5072
2830.633436 0.5082 0.5097 0.5132 0.5166 0.5196
2835.320951 0.5221 0.5226 0.5242 0.5302 0.5360
2840.008467 0.5410 0.5457 0.5492 0.5532 0.5598
2844.695983 0.5573 0.5199 0.4823 0.4439 0.4055
2849.383499 0.3676 0.3430 0.3739 0.4159 0.5052
2854.071014 0.5736 0.5502 0.5279 0.5110 0.4955
2858.758530 0.4870 0.4785 0.4700 0.4600 0.4424
2863.446046 0.4247 0.4073 0.3898 0.3723 0.3579
2868.133561 0.3574 0.3569 0.3564 0.3571 0.3636
2872.821077 0.3698 0.3748 0.3798 0.3848 0.3893
2877.508593 0.3913 0.3940 0.4005 0.4072 0.4153
2882.196109 0.4233 0.4307 0.4382 0.4451 0.4520
2886.883624 0.4580 0.4634 0.4659 0.4682 0.4692
2891.571140 0.4702 0.4717 0.4726 0.4696 0.4659
2896.258656 0.4585 0.4510 0.4441 0.4372 0.4311
2900.946171 0.4249 0.4180 0.4110 0.4046 0.3965
2905.633687 0.3790 0.3636 0.3606 0.3575 0.3540
2910.321203 0.3504 0.3459 0.3399 0.3234 0.3088
2915.008719 0.3073 0.3060 0.3060 0.3037 0.2840
2919.696234 0.2663 0.2608 0.2544 0.2425 0.2319
2924.383750 0.2309 0.2301 0.2311 0.2324 0.2353
2929.071266 0.2385 0.2430 0.2468 0.2453 0.2435
2933.758781 0.2390 0.2345 0.2295 0.2245 0.2195
2938.446297 0.2149 0.2144 0.2140 0.2140 0.2139
2943.133813 0.2129 0.2120 0.2120 0.2121 0.2131
2947.821329 0.2140 0.2145 0.2150 0.2150 0.2151
2952.508844 0.2161 0.2170 0.2175 0.2180 0.2180
2957.196360 0.2180 0.2185 0.2191 0.2201 0.2210
2961.883876 0.2215 0.2220 0.2220 0.2220 0.2220
2966.571391 0.2214 0.2145 0.2075 0.2016 0.1959
2971.258907 0.1944 0.1930 0.1930 0.1930 0.1925
2975.946423 0.1919 0.1904 0.1890 0.1890 0.1891
2980.633938 0.1901 0.1913 0.1953 0.1992 0.2027
2985.321454 0.2069 0.2224 0.2373 0.2428 0.2483
2990.008970 0.2548 0.2612 0.2657 0.2701 0.2732
2994.696486 0.2766 0.2866 0.2965 0.3055 0.3145
2999.384001 0.3229 0.3319 0.3494 0.3663 0.3733
3004.071517 0.3802 0.3847 0.3892 0.3931 0.3967
3008.759033 0.3882 0.3800 0.3800 0.3803 0.3904
3013.446548 0.4002 0.4047 0.4092 0.4137 0.4182
3018.134064 0.4237 0.4294 0.4403 0.4516 0.4721
3022.821580 0.4922 0.5007 0.5091 0.5136 0.5180
3027.509096 0.5185 0.5191 0.5256 0.5321 0.5437
3032.196611 0.5551 0.5576 0.5601 0.5626 0.5650
3036.884127 0.5675 0.5700 0.5715 0.5733 0.6012
3041.571643 0.6291 0.6391 0.6490 0.6570 0.6650
3046.259158 0.6685 0.6720 0.6670 0.6620 0.6605
3050.946674 0.6590 0.6605 0.6622 0.7077 0.7530
3055.634190 0.7600 0.7670 0.7720 0.7770 0.7834
3060.321706 0.7899 0.7935 0.7970 0.8019 0.8069
3065.009221 0.8119 0.8169 0.8204 0.8239 0.8279
3069.696737 0.8320 0.8355 0.8390 0.8434 0.8479
3074.384253 0.8529 0.8579 0.8668 0.8758 0.8814
3079.071768 0.8868 0.8904 0.8939 0.8959 0.8979
3083.759284 0.9043 0.9107 0.9124 0.9139 0.9183
3088.446800 0.9229 0.9249 0.9269 0.9285 0.9299
3093.134316 0.9319 0.9339 0.9378 0.9418 0.9439
3097.821831 0.9459 0.9479 0.9499 0.9514 0.9529
3102.509347 0.9539 0.9549 0.9564 0.9579 0.9585
3107.196863 0.9590 0.9604 0.9619 0.9634 0.9649
3111.884378 0.9664 0.9679 0.9699 0.9719 0.9725
3116.571894 0.9730 0.9730 0.9730 0.9739 0.9749
3121.259410 0.9750 0.9750 0.9755 0.9760 0.9760
3125.946926 0.9760 0.9769 0.9779 0.9785 0.9790
3130.634441 0.9790 0.9790 0.9799 0.9809 0.9810
3135.321957 0.9810 0.9810 0.9810 0.9810 0.9810
3140.009473 0.9810 0.9810 0.9810 0.9810 0.9810
3144.696988 0.9810 0.9815 0.9820 0.9820 0.9820
3149.384504 0.9820 0.9820 0.9820 0.9820 0.9820
3154.072020 0.9820 0.9820 0.9820 0.9820 0.9820
3158.759536 0.9829 0.9839 0.9840 0.9840 0.9840
3163.447051 0.9840 0.9845 0.9849 0.9850 0.9850
3168.134567 0.9850 0.9850 0.9854 0.9859 0.9860
3172.822083 0.9860 0.9860 0.9860 0.9860 0.9860
3177.509598 0.9860 0.9860 0.9869 0.9879 0.9880
3182.197114 0.9880 0.9880 0.9880 0.9880 0.9880
3186.884630 0.9880 0.9880 0.9880 0.9880 0.9880
3191.572146 0.9880 0.9880 0.9880 0.9880 0.9880
3196.259661 0.9880 0.9880 0.9880 0.9880 0.9880
3200.947177 0.9880 0.9880 0.9880 0.9880 0.9880
3205.634693 0.9880 0.9880 0.9880 0.9880 0.9880
3210.322208 0.9880 0.9880 0.9880 0.9880 0.9880
3215.009724 0.9880 0.9880 0.9880 0.9880 0.9880
3219.697240 0.9880 0.9880 0.9880 0.9884 0.9889
3224.384756 0.9898 0.9908 0.9910 0.9910 0.9910
3229.072271 0.9910 0.9910 0.9910 0.9910 0.9910
3233.759787 0.9910 0.9910 0.9910 0.9910 0.9910
3238.447303 0.9910 0.9910 0.9910 0.9910 0.9910
3243.134818 0.9910 0.9910 0.9910 0.9910 0.9910
3247.822334 0.9910 0.9910 0.9910 0.9910 0.9910
3252.509850 0.9910 0.9910 0.9910 0.9910 0.9910
3257.197366 0.9910 0.9910 0.9910 0.9910 0.9910
3261.884881 0.9910 0.9910 0.9910 0.9910 0.9910
3266.572397 0.9910 0.9910 0.9910 0.9910 0.9910
3271.259913 0.9910 0.9910 0.9910 0.9910 0.9910
3275.947428 0.9910 0.9910 0.9910 0.9910 0.9910
3280.634944 0.9910 0.9910 0.9910 0.9910 0.9910
3285.322460 0.9910 0.9914 0.9919 0.9920 0.9920
3290.009976 0.9920 0.9920 0.9920 0.9920 0.9920
3294.697491 0.9920 0.9920 0.9920 0.9920 0.9920
3299.385007 0.9920 0.9920 0.9920 0.9920 0.9920
3304.072523 0.9920 0.9920 0.9920 0.9920 0.9920
3308.760038 0.9920 0.9920 0.9920 0.9920 0.9920
3313.447554 0.9920 0.9920 0.9920 0.9916 0.9911
3318.135070 0.9910 0.9910 0.9910 0.9910 0.9910
3322.822586 0.9910 0.9910 0.9910 0.9910 0.9910
3327.510101 0.9910 0.9910 0.9910 0.9910 0.9910
3332.197617 0.9910 0.9910 0.9910 0.9910 0.9910
3336.885133 0.9910 0.9910 0.9903 0.9893 0.9890
3341.572648 0.9890 0.9890 0.9890 0.9890 0.9890
3346.260164 0.9890 0.9890 0.9890 0.9890 0.9890
3350.947680 0.9890 0.9890 0.9890 0.9890 0.9890
3355.635196 0.9886 0.9881 0.9880 0.9880 0.9880
3360.322711 0.9880 0.9880 0.9880 0.9880 0.9880
3365.010227 0.9880 0.9880 0.9880 0.9880 0.9880
3369.697743 0.9880 0.9873 0.9863 0.9860 0.9860
3374.385258 0.9860 0.9860 0.9860 0.9860 0.9860
3379.072774 0.9860 0.9860 0.9860 0.9860 0.9860
3383.760290 0.9857 0.9852 0.9850 0.9850 0.9850
3388.447806 0.9850 0.9853 0.9858 0.9860 0.9860
3393.135321 0.9860 0.9860 0.9860 0.9860 0.9860
3397.822837 0.9860 0.9857 0.9852 0.9850 0.9850
3402.510353 0.9850 0.9850 0.9847 0.9842 0.9840
3407.197868 0.9840 0.9840 0.9840 0.9840 0.9840
3411.885384 0.9840 0.9840 0.9840 0.9840 0.9833
3416.572900 0.9823 0.9820 0.9820 0.9820 0.9820
3421.260416 0.9820 0.9820 0.9820 0.9820 0.9817
3425.947931 0.9812 0.9810 0.9810 0.9810 0.9810
3430.635447 0.9810 0.9810 0.9810 0.9810 0.9810
3435.322963 0.9810 0.9810 0.9810 0.9810 0.9810
3440.010478 0.9813 0.9818 0.9817 0.9812 0.9810
3444.697994 0.9810 0.9810 0.9810 0.9810 0.9810
3449.385510 0.9810 0.9810 0.9810 0.9810 0.9810
3454.073026 0.9810 0.9810 0.9810 0.9810 0.9810
3458.760541 0.9810 0.9810 0.9810 0.9810 0.9810
3463.448057 0.9810 0.9810 0.9810 0.9810 0.9810
3468.135573 0.9810 0.9810 0.9810 0.9810 0.9804
3472.823088 0.9794 0.9790 0.9790 0.9790 0.9790
3477.510604 0.9787 0.9782 0.9780 0.9780 0.9774
3482.198120 0.9764 0.9760 0.9760 0.9760 0.9760
3486.885636 0.9760 0.9760 0.9766 0.9776 0.9780
3491.573151 0.9780 0.9780 0.9780 0.9780 0.9780
3496.260667 0.9780 0.9780 0.9783 0.9788 0.9790
3500.948183 0.9790 0.9790 0.9790 0.9790 0.9790
3505.635698 0.9790 0.9790 0.9790 0.9790 0.9790
3510.323214 0.9790 0.9790 0.9790 0.9790 0.9790
3515.010730 0.9790 0.9790 0.9790 0.9790 0.9790
3519.698246 0.9790 0.9790 0.9790 0.9787 0.9782
3524.385761 0.9780 0.9780 0.9774 0.9765 0.9757
3529.073277 0.9752 0.9750 0.9750 0.9750 0.9750
3533.760793 0.9750 0.9750 0.9750 0.9750 0.9750
3538.448308 0.9750 0.9753 0.9758 0.9760 0.9760
3543.135824 0.9760 0.9760 0.9760 0.9760 0.9757
3547.823340 0.9752 0.9745 0.9735 0.9730 0.9730
3552.510856 0.9727 0.9722 0.9720 0.9720 0.9717
3557.198371 0.9712 0.9705 0.9695 0.9682 0.9667
3561.885887 0.9652 0.9637 0.9627 0.9622 0.9612
3566.573403 0.9597 0.9587 0.9582 0.9572 0.9557
3571.260918 0.9545 0.9535 0.9523 0.9508 0.9490
3575.948434 0.9470 0.9452 0.9437 0.9420 0.9400
3580.635950 0.9382 0.9367 0.9353 0.9338 0.9325
3585.323466 0.9315 0.9308 0.9303 0.9293 0.9278
3590.010981 0.9260 0.9240 0.9225 0.9215 0.9210
3594.698497 0.9210 0.9210 0.9210 0.9203 0.9188
3599.386013 0.9168 0.9143 0.9116 0.9086 0.9060
3604.073528 0.9041 0.9018 0.8993 0.8978 0.8973
3608.761044 0.8965 0.8955 0.8948 0.8943 0.8933
3613.448560 0.8918 0.8889 0.8844 0.8811 0.8791
3618.136076 0.8764 0.8729 0.8689 0.8644 0.8611
3622.823591 0.8591 0.8573 0.8558 0.8545 0.8536
3627.511107 0.8501 0.8436 0.8325 0.8155 0.8005
3632.198623 0.7878 0.7803 0.7788 0.7766 0.7736
3636.886138 0.7695 0.7640 0.7583 0.7523 0.7466
3641.573654 0.7411 0.7269 0.7014 0.6851 0.6806
3646.261170 0.6746 0.6666 0.6571 0.6456 0.6375
3650.948686 0.6340 0.6313 0.6298 0.6292 0.6297
3655.636201 0.6317 0.6357 0.6401 0.6451 0.6482
3660.323717 0.6487 0.6509 0.6554 0.6592 0.6622
3665.011233 0.6648 0.6668 0.6680 0.6680 0.6619
3669.698748 0.6468 0.6313 0.6153 0.5995 0.5841
3674.386264 0.5870 0.6159 0.6561 0.7125 0.7359
3679.073780 0.7109 0.6854 0.6589 0.6422 0.6402
3683.761296 0.6378 0.6348 0.6320 0.6295 0.6270
3688.448811 0.6245 0.6228 0.6223 0.6216 0.6206
3693.136327 0.6200 0.6200 0.6200 0.6200 0.6206
3697.823843 0.6221 0.6236 0.6251 0.6271 0.6301
3702.511358 0.6331 0.6361 0.6395 0.6435 0.6480
3707.198874 0.6536 0.6589 0.6639 0.6733 0.6898
3711.886390 0.7109 0.7399 0.7604 0.7669 0.7754
3716.573906 0.7874 0.7972 0.8032 0.8112 0.8226
3721.261421 0.8316 0.8361 0.8418 0.8498 0.8591
3725.948937 0.8707 0.8802 0.8862 0.8920 0.8975
3730.636453 0.9028 0.9078 0.9126 0.9171 0.9202
3735.323968 0.9207 0.9224 0.9264 0.9299 0.9324
3740.011484 0.9345 0.9360 0.9370 0.9370 0.9373
3744.699000 0.9383 0.9395 0.9410 0.9427 0.9447
3749.386516 0.9467 0.9487 0.9505 0.9520 0.9538
3754.074031 0.9563 0.9583 0.9593 0.9610 0.9640
3758.761547 0.9671 0.9706 0.9733 0.9743 0.9756
3763.449063 0.9777 0.9793 0.9803 0.9810 0.9810
3768.136578 0.9812 0.9817 0.9820 0.9820 0.9823
3772.824094 0.9833 0.9840 0.9840 0.9840 0.9840
3777.511610 0.9840 0.9840 0.9837 0.9827 0.9820
3782.199126 0.9820 0.9820 0.9820 0.9818 0.9813
3786.886641 0.9810 0.9810 0.9810 0.9810 0.9807
3791.574157 0.9797 0.9790 0.9790 0.9789 0.9784
3796.261673 0.9784 0.9799 0.9810 0.9810 0.9810
3800.949188 0.9810 0.9807 0.9797 0.9790 0.9790
3805.636704 0.9789 0.9784
##END=
