##TITLE=METHANOL
##JCAMP-DX=4.24
##DATA TYPE=INFRARED SPECTRUM
##CLASS=COBLENTZ II
##ORIGIN=DOW CHEMICAL COMPANY
##OWNER=COBLENTZ SOCIETY
Collection (C) 2007 copyright by the U.S. Secretary of Commerce
on behalf of the United States of America. All rights reserved.
##DATE=1965/10/13
##CAS REGISTRY NO=67-56-1
##MOLFORM=CH4O
##SOURCE REFERENCE=COBLENTZ NO. 10138
##$NIST SOURCE=COBLENTZ
##$NIST IMAGE=cob10138
##SPECTROMETER/DATA SYSTEM=DOW KBr FOREPRISM-GRATING
##INSTRUMENT PARAMETERS=BLAZED AT 3.5, 12.0, 20.0 MICRON, CHANGED AT 5.0, 7.5, 14.9 MICRON
##STATE=SOLUTION (2% IN CCl4 FOR 3800-1330, 2% IN CS2 FOR 1330-400 CM^-^1) VS SOLVENT
##PATH LENGTH=0.011, 0.011 CM
$$ SEE SPECTRUM NO. 6985 FOR "VAPOR-PHASE" AND SPECTRUM NO. 8791 FOR "GAS-PHASE" STATES
##SAMPLING PROCEDURE=TRANSMISSION
##RESOLUTION=4
##DATA PROCESSING=DIGITIZED BY NIST FROM HARD COPY (FROM TWO SEGMENTS)
##XUNITS=1/CM
##YUNITS=TRANSMITTANCE
##XFACTOR=1.000000
##YFACTOR=1
##DELTAX=0.871082
##FIRSTX=391.115
##LASTX=3781.36
##FIRSTY=0.937
##MAXX=3781.36
##MINX=391.115
##MAXY=0.993
##MINY=0.125003
##NPOINTS=3893
##XYDATA=(X++(Y..Y))
391.115000 0.9370 0.9390 0.9390 0.9390 0.9390
395.470408 0.9410 0.9410 0.9420 0.9420 0.9430
399.825817 0.9430 0.9430 0.9450 0.9460 0.9460
404.181225 0.9460 0.9480 0.9490 0.9490 0.9490
408.536634 0.9500 0.9520 0.9520 0.9530 0.9530
412.892042 0.9540 0.9540 0.9540 0.9540 0.9540
417.247450 0.9560 0.9560 0.9560 0.9540 0.9540
421.602859 0.9540 0.9540 0.9530 0.9520 0.9520
425.958267 0.9520 0.9500 0.9500 0.9500 0.9500
430.313676 0.9490 0.9490 0.9480 0.9480 0.9480
434.669084 0.9480 0.9460 0.9460 0.9450 0.9430
439.024492 0.9420 0.9390 0.9370 0.9350 0.9350
443.379901 0.9340 0.9340 0.9340 0.9340 0.9330
447.735309 0.9310 0.9300 0.9280 0.9280 0.9270
452.090718 0.9260 0.9260 0.9260 0.9260 0.9240
456.446126 0.9240 0.9240 0.9230 0.9230 0.9220
460.801534 0.9220 0.9200 0.9190 0.9180 0.9150
465.156943 0.9150 0.9130 0.9130 0.9130 0.9120
469.512351 0.9120 0.9120 0.9110 0.9110 0.9110
473.867760 0.9110 0.9090 0.9080 0.9080 0.9080
478.223168 0.9080 0.9080 0.9080 0.9080 0.9080
482.578576 0.9080 0.9080 0.9080 0.9080 0.9080
486.933985 0.9080 0.9080 0.9070 0.9070 0.9050
491.289393 0.9050 0.9050 0.9050 0.9050 0.9040
495.644802 0.9030 0.9010 0.9000 0.8980 0.8970
500.000210 0.8940 0.8930 0.8930 0.8920 0.8920
504.355618 0.8900 0.8900 0.8900 0.8900 0.8890
508.711027 0.8890 0.8890 0.8890 0.8890 0.8870
513.066435 0.8870 0.8870 0.8870 0.8860 0.8850
517.421844 0.8830 0.8830 0.8820 0.8810 0.8810
521.777252 0.8810 0.8790 0.8780 0.8780 0.8770
526.132660 0.8750 0.8720 0.8710 0.8710 0.8710
530.488069 0.8700 0.8700 0.8700 0.8700 0.8700
534.843477 0.8680 0.8680 0.8680 0.8680 0.8680
539.198886 0.8680 0.8680 0.8680 0.8680 0.8670
543.554294 0.8670 0.8670 0.8670 0.8670 0.8670
547.909703 0.8660 0.8660 0.8660 0.8660 0.8630
552.265111 0.8630 0.8630 0.8620 0.8620 0.8620
556.620519 0.8620 0.8620 0.8600 0.8600 0.8600
560.975928 0.8600 0.8600 0.8600 0.8600 0.8600
565.331336 0.8600 0.8590 0.8590 0.8590 0.8590
569.686745 0.8590 0.8590 0.8590 0.8590 0.8590
574.042153 0.8570 0.8570 0.8570 0.8560 0.8560
578.397561 0.8560 0.8560 0.8560 0.8550 0.8550
582.752970 0.8550 0.8550 0.8550 0.8520 0.8520
587.108378 0.8510 0.8510 0.8510 0.8510 0.8510
591.463787 0.8510 0.8510 0.8510 0.8490 0.8490
595.819195 0.8490 0.8490 0.8490 0.8490 0.8480
600.174603 0.8480 0.8480 0.8480 0.8480 0.8480
604.530012 0.8480 0.8450 0.8440 0.8440 0.8440
608.885420 0.8440 0.8420 0.8420 0.8420 0.8440
613.240829 0.8440 0.8440 0.8440 0.8440 0.8420
617.596237 0.8420 0.8420 0.8420 0.8420 0.8440
621.951645 0.8440 0.8440 0.8440 0.8440 0.8440
626.307054 0.8440 0.8440 0.8440 0.8420 0.8420
630.662462 0.8420 0.8410 0.8410 0.8410 0.8420
635.017871 0.8420 0.8410 0.8410 0.8410 0.8400
639.373279 0.8400 0.8400 0.8400 0.8400 0.8400
643.728687 0.8400 0.8400 0.8400 0.8410 0.8410
648.084096 0.8410 0.8410 0.8410 0.8410 0.8410
652.439504 0.8410 0.8410 0.8410 0.8420 0.8420
656.794913 0.8420 0.8440 0.8440 0.8450 0.8450
661.150321 0.8450 0.8450 0.8460 0.8460 0.8460
665.505729 0.8460 0.8480 0.8480 0.8480 0.8480
669.861138 0.8480 0.8480 0.8480 0.8480 0.8480
674.216546 0.8490 0.8490 0.8510 0.8530 0.8550
678.571955 0.8550 0.8550 0.8550 0.8560 0.8570
682.927363 0.8570 0.8570 0.8590 0.8600 0.8600
687.282771 0.8620 0.8620 0.8620 0.8620 0.8630
691.638180 0.8640 0.8640 0.8660 0.8660 0.8660
695.993588 0.8660 0.8670 0.8670 0.8670 0.8670
700.348997 0.8680 0.8680 0.8680 0.8700 0.8700
704.704405 0.8710 0.8710 0.8710 0.8710 0.8720
709.059813 0.8720 0.8720 0.8750 0.8750 0.8770
713.415222 0.8780 0.8780 0.8790 0.8790 0.8790
717.770630 0.8790 0.8810 0.8810 0.8810 0.8820
722.126039 0.8830 0.8850 0.8850 0.8850 0.8860
726.481447 0.8860 0.8870 0.8870 0.8890 0.8890
730.836855 0.8890 0.8900 0.8900 0.8920 0.8920
735.192264 0.8920 0.8920 0.8930 0.8960 0.8970
739.547672 0.8970 0.8970 0.8970 0.8980 0.9000
743.903081 0.9000 0.9000 0.9010 0.9010 0.9010
748.258489 0.9030 0.9030 0.9030 0.9040 0.9040
752.613897 0.9040 0.9040 0.9050 0.9050 0.9050
756.969306 0.9050 0.9050 0.9050 0.9070 0.9070
761.324714 0.9080 0.9090 0.9090 0.9090 0.9110
765.680123 0.9110 0.9120 0.9120 0.9120 0.9120
770.035531 0.9130 0.9150 0.9160 0.9180 0.9190
774.390939 0.9190 0.9190 0.9190 0.9190 0.9190
778.746348 0.9190 0.9190 0.9190 0.9180 0.9180
783.101756 0.9180 0.9160 0.9150 0.9150 0.9160
787.457165 0.9160 0.9180 0.9190 0.9190 0.9230
791.812573 0.9270 0.9310 0.9330 0.9340 0.9380
796.167981 0.9390 0.9420 0.9430 0.9430 0.9430
800.523390 0.9450 0.9460 0.9480 0.9480 0.9490
804.878798 0.9500 0.9500 0.9500 0.9520 0.9530
809.234207 0.9530 0.9530 0.9530 0.9530 0.9530
813.589615 0.9530 0.9540 0.9540 0.9540 0.9560
817.945023 0.9560 0.9560 0.9560 0.9570 0.9590
822.300432 0.9600 0.9600 0.9610 0.9630 0.9630
826.655840 0.9630 0.9640 0.9640 0.9650 0.9650
831.011249 0.9650 0.9650 0.9650 0.9650 0.9650
835.366657 0.9650 0.9670 0.9670 0.9670 0.9680
839.722066 0.9680 0.9680 0.9680 0.9680 0.9680
844.077474 0.9680 0.9680 0.9680 0.9680 0.9680
848.432882 0.9680 0.9680 0.9680 0.9670 0.9670
852.788291 0.9670 0.9670 0.9670 0.9650 0.9650
857.143699 0.9650 0.9650 0.9650 0.9650 0.9650
861.499108 0.9650 0.9650 0.9670 0.9670 0.9670
865.854516 0.9670 0.9680 0.9680 0.9680 0.9680
870.209924 0.9680 0.9690 0.9690 0.9690 0.9710
874.565333 0.9710 0.9710 0.9710 0.9710 0.9710
878.920741 0.9710 0.9710 0.9710 0.9710 0.9720
883.276150 0.9720 0.9720 0.9720 0.9720 0.9720
887.631558 0.9720 0.9720 0.9720 0.9720 0.9720
891.986966 0.9720 0.9720 0.9710 0.9710 0.9710
896.342375 0.9710 0.9710 0.9710 0.9690 0.9690
900.697783 0.9690 0.9690 0.9690 0.9690 0.9690
905.053192 0.9690 0.9690 0.9690 0.9680 0.9680
909.408600 0.9680 0.9680 0.9670 0.9670 0.9670
913.764008 0.9670 0.9670 0.9650 0.9650 0.9650
918.119417 0.9650 0.9650 0.9650 0.9650 0.9650
922.474825 0.9650 0.9640 0.9630 0.9630 0.9630
926.830234 0.9610 0.9610 0.9610 0.9610 0.9610
931.185642 0.9610 0.9610 0.9600 0.9600 0.9590
935.541050 0.9590 0.9590 0.9560 0.9560 0.9560
939.896459 0.9560 0.9560 0.9540 0.9540 0.9530
944.251867 0.9530 0.9520 0.9500 0.9490 0.9480
948.607276 0.9460 0.9450 0.9450 0.9430 0.9420
952.962684 0.9420 0.9410 0.9390 0.9380 0.9380
957.318092 0.9370 0.9350 0.9340 0.9340 0.9330
961.673501 0.9310 0.9310 0.9310 0.9300 0.9280
966.028909 0.9270 0.9240 0.9220 0.9190 0.9180
970.384318 0.9150 0.9130 0.9120 0.9110 0.9090
974.739726 0.9050 0.9040 0.9010 0.8980 0.8960
979.095134 0.8940 0.8930 0.8900 0.8890 0.8850
983.450543 0.8790 0.8780 0.8750 0.8710 0.8700
987.805951 0.8660 0.8620 0.8570 0.8560 0.8490
992.161360 0.8410 0.8360 0.8310 0.8250 0.8150
996.516768 0.8060 0.7950 0.7810 0.7670 0.7550
1000.872176 0.7430 0.7320 0.7220 0.7150 0.6990
1005.227585 0.6800 0.6650 0.6480 0.6271 0.6031
1009.582993 0.5770 0.5620 0.5360 0.5080 0.4900
1013.938402 0.4541 0.4281 0.4051 0.3781 0.3571
1018.293810 0.3260 0.3110 0.2820 0.2550 0.2450
1022.649218 0.2400 0.2280 0.2130 0.2000 0.1831
1027.004627 0.1720 0.1540 0.1390 0.1270 0.1250
1031.360035 0.1270 0.1280 0.1310 0.1330 0.1360
1035.715444 0.1420 0.1500 0.1580 0.1690 0.1730
1040.070852 0.2030 0.2579 0.2690 0.3009 0.3369
1044.426260 0.3701 0.4070 0.4450 0.4790 0.5170
1048.781669 0.5430 0.5879 0.6289 0.6529 0.6550
1053.137077 0.6730 0.6950 0.7090 0.7280 0.7410
1057.492486 0.7560 0.7660 0.7740 0.7850 0.7950
1061.847894 0.8030 0.8110 0.8120 0.8160 0.8220
1066.203302 0.8250 0.8300 0.8330 0.8340 0.8340
1070.558711 0.8380 0.8400 0.8420 0.8440 0.8450
1074.914119 0.8460 0.8490 0.8490 0.8510 0.8510
1079.269528 0.8520 0.8520 0.8530 0.8550 0.8550
1083.624936 0.8550 0.8550 0.8550 0.8550 0.8550
1087.980344 0.8550 0.8550 0.8550 0.8550 0.8530
1092.335753 0.8520 0.8520 0.8520 0.8520 0.8510
1096.691161 0.8490 0.8490 0.8450 0.8450 0.8440
1101.046570 0.8410 0.8410 0.8380 0.8370 0.8360
1105.401978 0.8360 0.8340 0.8330 0.8330 0.8310
1109.757386 0.8310 0.8300 0.8300 0.8310 0.8310
1114.112795 0.8330 0.8330 0.8340 0.8370 0.8380
1118.468203 0.8410 0.8420 0.8440 0.8490 0.8510
1122.823612 0.8520 0.8550 0.8570 0.8620 0.8640
1127.179020 0.8680 0.8700 0.8720 0.8740 0.8780
1131.534429 0.8810 0.8830 0.8860 0.8870 0.8900
1135.889837 0.8920 0.8920 0.8930 0.8940 0.8960
1140.245245 0.8970 0.8980 0.9000 0.9010 0.9030
1144.600654 0.9040 0.9050 0.9050 0.9080 0.9090
1148.956062 0.9110 0.9120 0.9120 0.9120 0.9120
1153.311471 0.9120 0.9120 0.9120 0.9120 0.9130
1157.666879 0.9130 0.9130 0.9130 0.9130 0.9130
1162.022287 0.9130 0.9130 0.9130 0.9130 0.9130
1166.377696 0.9130 0.9130 0.9130 0.9130 0.9130
1170.733104 0.9150 0.9150 0.9130 0.9130 0.9130
1175.088513 0.9130 0.9130 0.9130 0.9130 0.9130
1179.443921 0.9130 0.9130 0.9130 0.9130 0.9130
1183.799329 0.9130 0.9130 0.9130 0.9130 0.9120
1188.154738 0.9120 0.9120 0.9120 0.9120 0.9120
1192.510146 0.9120 0.9120 0.9120 0.9120 0.9120
1196.865555 0.9120 0.9120 0.9120 0.9120 0.9110
1201.220963 0.9110 0.9110 0.9110 0.9110 0.9110
1205.576371 0.9090 0.9080 0.9080 0.9080 0.9080
1209.931780 0.9080 0.9080 0.9080 0.9080 0.9080
1214.287188 0.9080 0.9080 0.9080 0.9080 0.9080
1218.642597 0.9080 0.9080 0.9090 0.9090 0.9080
1222.998005 0.9080 0.9080 0.9080 0.9080 0.9070
1227.353413 0.9070 0.9070 0.9070 0.9050 0.9050
1231.708822 0.9050 0.9050 0.9050 0.9050 0.9050
1236.064230 0.9050 0.9050 0.9050 0.9040 0.9040
1240.419639 0.9040 0.9040 0.9040 0.9040 0.9040
1244.775047 0.9040 0.9040 0.9030 0.9010 0.9010
1249.130455 0.9010 0.9000 0.9000 0.9000 0.9000
1253.485864 0.9000 0.9000 0.8980 0.8980 0.8980
1257.841272 0.8970 0.8970 0.8970 0.8970 0.8970
1262.196681 0.8960 0.8960 0.8960 0.8940 0.8940
1266.552089 0.8930 0.8930 0.8930 0.8930 0.8930
1270.907497 0.8930 0.8930 0.8930 0.8930 0.8920
1275.262906 0.8920 0.8920 0.8920 0.8920 0.8920
1279.618314 0.8920 0.8920 0.8920 0.8920 0.8920
1283.973723 0.8920 0.8920 0.8920 0.8920 0.8900
1288.329131 0.8900 0.8890 0.8890 0.8890 0.8890
1292.684539 0.8890 0.8870 0.8850 0.8830 0.8820
1297.039948 0.8820 0.8820 0.8810 0.8810 0.8780
1301.395356 0.8770 0.8750 0.8750 0.8750 0.8720
1305.750765 0.8720 0.8710 0.8710 0.8710 0.8700
1310.106173 0.8700 0.8700 0.8660 0.8660 0.8640
1314.461581 0.8630 0.8620 0.8620 0.8600 0.8570
1318.816990 0.8550 0.8530 0.8520 0.8510 0.8490
1323.172398 0.8490 0.8480 0.8460 0.8460 0.8460
1327.527807 0.8450 0.8450 0.8450 0.8450 0.8450
1331.883215 0.8440 0.8440 0.8440 0.8440 0.8440
1336.238623 0.8440 0.8440 0.8440 0.8440 0.8440
1340.594032 0.8440 0.8440 0.8440 0.8440 0.8420
1344.949440 0.8420 0.8420 0.8420 0.8420 0.8410
1349.304849 0.8410 0.8400 0.8400 0.8380 0.8380
1353.660257 0.8380 0.8370 0.8340 0.8330 0.8310
1358.015665 0.8300 0.8300 0.8270 0.8250 0.8220
1362.371074 0.8210 0.8210 0.8210 0.8180 0.8150
1366.726482 0.8140 0.8140 0.8120 0.8110 0.8100
1371.081891 0.8080 0.8070 0.8060 0.8040 0.8030
1375.437299 0.8010 0.7990 0.7990 0.7960 0.7950
1379.792707 0.7950 0.7930 0.7930 0.7880 0.7820
1384.148116 0.7750 0.7690 0.7670 0.7670 0.7690
1388.503524 0.7690 0.7700 0.7700 0.7700 0.7690
1392.858933 0.7670 0.7670 0.7660 0.7650 0.7630
1397.214341 0.7630 0.7600 0.7600 0.7590 0.7590
1401.569749 0.7590 0.7580 0.7580 0.7580 0.7580
1405.925158 0.7580 0.7580 0.7580 0.7580 0.7580
1410.280566 0.7580 0.7580 0.7560 0.7560 0.7560
1414.635975 0.7560 0.7580 0.7580 0.7580 0.7580
1418.991383 0.7580 0.7580 0.7580 0.7590 0.7600
1423.346792 0.7600 0.7630 0.7650 0.7650 0.7660
1427.702200 0.7670 0.7670 0.7690 0.7690 0.7700
1432.057608 0.7730 0.7740 0.7750 0.7750 0.7750
1436.413017 0.7740 0.7740 0.7730 0.7710 0.7700
1440.768425 0.7670 0.7650 0.7620 0.7590 0.7580
1445.123834 0.7510 0.7450 0.7370 0.7210 0.7110
1449.479242 0.7100 0.7100 0.7130 0.7190 0.7250
1453.834650 0.7280 0.7360 0.7400 0.7430 0.7470
1458.190059 0.7510 0.7540 0.7550 0.7560 0.7580
1462.545467 0.7600 0.7600 0.7630 0.7650 0.7660
1466.900876 0.7670 0.7700 0.7700 0.7710 0.7710
1471.256284 0.7750 0.7770 0.7770 0.7780 0.7810
1475.611692 0.7850 0.7880 0.7930 0.7930 0.7960
1479.967101 0.7990 0.8030 0.8070 0.8150 0.8160
1484.322509 0.8190 0.8230 0.8300 0.8310 0.8400
1488.677918 0.8440 0.8460 0.8510 0.8520 0.8570
1493.033326 0.8600 0.8620 0.8640 0.8670 0.8700
1497.388734 0.8710 0.8710 0.8720 0.8740 0.8750
1501.744143 0.8780 0.8790 0.8810 0.8820 0.8830
1506.099551 0.8850 0.8850 0.8860 0.8870 0.8900
1510.454960 0.8900 0.8920 0.8920 0.8920 0.8930
1514.810368 0.8930 0.8940 0.8970 0.8970 0.8980
1519.165776 0.9000 0.9000 0.9000 0.9000 0.9010
1523.521185 0.9030 0.9040 0.9040 0.9050 0.9050
1527.876593 0.9070 0.9070 0.9080 0.9080 0.9080
1532.232002 0.9090 0.9110 0.9110 0.9120 0.9120
1536.587410 0.9120 0.9130 0.9130 0.9130 0.9130
1540.942818 0.9120 0.9120 0.9130 0.9150 0.9160
1545.298227 0.9180 0.9180 0.9180 0.9180 0.9190
1549.653635 0.9190 0.9180 0.9190 0.9200 0.9200
1554.009044 0.9220 0.9230 0.9230 0.9230 0.9240
1558.364452 0.9240 0.9240 0.9260 0.9260 0.9260
1562.719860 0.9260 0.9270 0.9270 0.9270 0.9270
1567.075269 0.9280 0.9280 0.9280 0.9280 0.9300
1571.430677 0.9300 0.9300 0.9310 0.9310 0.9330
1575.786086 0.9330 0.9330 0.9340 0.9370 0.9370
1580.141494 0.9370 0.9370 0.9370 0.9380 0.9390
1584.496902 0.9390 0.9410 0.9410 0.9410 0.9420
1588.852311 0.9420 0.9430 0.9430 0.9430 0.9430
1593.207719 0.9430 0.9450 0.9450 0.9450 0.9450
1597.563128 0.9460 0.9460 0.9480 0.9480 0.9490
1601.918536 0.9500 0.9500 0.9500 0.9500 0.9520
1606.273944 0.9530 0.9530 0.9530 0.9530 0.9540
1610.629353 0.9540 0.9540 0.9540 0.9540 0.9540
1614.984761 0.9540 0.9540 0.9560 0.9560 0.9560
1619.340170 0.9560 0.9540 0.9540 0.9540 0.9560
1623.695578 0.9560 0.9560 0.9560 0.9560 0.9560
1628.050986 0.9560 0.9560 0.9560 0.9560 0.9560
1632.406395 0.9560 0.9560 0.9590 0.9590 0.9590
1636.761803 0.9590 0.9600 0.9600 0.9600 0.9610
1641.117212 0.9610 0.9610 0.9630 0.9640 0.9640
1645.472620 0.9640 0.9640 0.9640 0.9640 0.9640
1649.828028 0.9640 0.9640 0.9640 0.9640 0.9650
1654.183437 0.9650 0.9650 0.9650 0.9650 0.9650
1658.538845 0.9650 0.9670 0.9670 0.9670 0.9680
1662.894254 0.9680 0.9680 0.9690 0.9690 0.9690
1667.249662 0.9690 0.9690 0.9710 0.9710 0.9710
1671.605070 0.9710 0.9710 0.9710 0.9720 0.9720
1675.960479 0.9720 0.9710 0.9710 0.9710 0.9710
1680.315887 0.9710 0.9710 0.9710 0.9710 0.9710
1684.671296 0.9710 0.9710 0.9710 0.9710 0.9710
1689.026704 0.9710 0.9710 0.9710 0.9710 0.9710
1693.382112 0.9720 0.9720 0.9720 0.9720 0.9720
1697.737521 0.9720 0.9720 0.9720 0.9720 0.9720
1702.092929 0.9720 0.9720 0.9720 0.9720 0.9720
1706.448338 0.9720 0.9720 0.9710 0.9710 0.9710
1710.803746 0.9710 0.9710 0.9710 0.9710 0.9710
1715.159155 0.9710 0.9720 0.9720 0.9720 0.9720
1719.514563 0.9720 0.9720 0.9720 0.9720 0.9720
1723.869971 0.9720 0.9720 0.9720 0.9740 0.9740
1728.225380 0.9740 0.9740 0.9740 0.9740 0.9740
1732.580788 0.9750 0.9750 0.9750 0.9740 0.9740
1736.936197 0.9740 0.9750 0.9750 0.9750 0.9750
1741.291605 0.9760 0.9760 0.9760 0.9780 0.9780
1745.647013 0.9780 0.9780 0.9780 0.9780 0.9780
1750.002422 0.9780 0.9780 0.9780 0.9780 0.9780
1754.357830 0.9780 0.9780 0.9780 0.9780 0.9780
1758.713239 0.9780 0.9780 0.9780 0.9780 0.9780
1763.068647 0.9790 0.9790 0.9790 0.9790 0.9790
1767.424055 0.9790 0.9790 0.9790 0.9800 0.9800
1771.779464 0.9800 0.9820 0.9820 0.9820 0.9820
1776.134872 0.9820 0.9820 0.9820 0.9820 0.9820
1780.490281 0.9820 0.9820 0.9820 0.9830 0.9830
1784.845689 0.9830 0.9830 0.9830 0.9830 0.9840
1789.201097 0.9840 0.9840 0.9840 0.9860 0.9860
1793.556506 0.9860 0.9860 0.9860 0.9860 0.9870
1797.911914 0.9860 0.9860 0.9860 0.9860 0.9860
1802.267323 0.9860 0.9860 0.9870 0.9870 0.9860
1806.622731 0.9860 0.9860 0.9860 0.9860 0.9860
1810.978139 0.9860 0.9870 0.9870 0.9870 0.9870
1815.333548 0.9870 0.9870 0.9870 0.9890 0.9890
1819.688956 0.9890 0.9890 0.9890 0.9890 0.9890
1824.044365 0.9890 0.9890 0.9890 0.9890 0.9890
1828.399773 0.9890 0.9890 0.9890 0.9890 0.9890
1832.755181 0.9890 0.9890 0.9890 0.9870 0.9870
1837.110590 0.9870 0.9870 0.9870 0.9870 0.9870
1841.465998 0.9870 0.9870 0.9870 0.9890 0.9890
1845.821407 0.9890 0.9890 0.9890 0.9890 0.9890
1850.176815 0.9870 0.9870 0.9870 0.9870 0.9870
1854.532223 0.9890 0.9890 0.9890 0.9890 0.9890
1858.887632 0.9890 0.9890 0.9890 0.9890 0.9890
1863.243040 0.9890 0.9890 0.9890 0.9890 0.9890
1867.598449 0.9890 0.9890 0.9890 0.9890 0.9870
1871.953857 0.9870 0.9870 0.9890 0.9890 0.9890
1876.309265 0.9890 0.9890 0.9890 0.9890 0.9890
1880.664674 0.9890 0.9890 0.9890 0.9890 0.9890
1885.020082 0.9890 0.9890 0.9890 0.9890 0.9890
1889.375491 0.9890 0.9890 0.9890 0.9890 0.9890
1893.730899 0.9890 0.9870 0.9870 0.9870 0.9870
1898.086307 0.9870 0.9870 0.9870 0.9870 0.9870
1902.441716 0.9870 0.9870 0.9870 0.9870 0.9870
1906.797124 0.9870 0.9870 0.9870 0.9870 0.9860
1911.152533 0.9860 0.9860 0.9860 0.9860 0.9860
1915.507941 0.9860 0.9860 0.9870 0.9870 0.9870
1919.863349 0.9870 0.9870 0.9870 0.9870 0.9870
1924.218758 0.9870 0.9870 0.9870 0.9870 0.9870
1928.574166 0.9870 0.9870 0.9870 0.9870 0.9870
1932.929575 0.9870 0.9870 0.9870 0.9870 0.9860
1937.284983 0.9860 0.9860 0.9860 0.9860 0.9860
1941.640391 0.9860 0.9860 0.9860 0.9860 0.9860
1945.995800 0.9860 0.9860 0.9860 0.9870 0.9870
1950.351208 0.9870 0.9870 0.9870 0.9870 0.9870
1954.706617 0.9870 0.9870 0.9870 0.9860 0.9860
1959.062025 0.9840 0.9830 0.9830 0.9830 0.9830
1963.417433 0.9830 0.9830 0.9830 0.9830 0.9830
1967.772842 0.9830 0.9830 0.9830 0.9830 0.9830
1972.128250 0.9830 0.9830 0.9830 0.9830 0.9830
1976.483659 0.9830 0.9830 0.9830 0.9830 0.9830
1980.839067 0.9830 0.9830 0.9830 0.9820 0.9820
1985.194475 0.9800 0.9800 0.9790 0.9790 0.9780
1989.549884 0.9780 0.9780 0.9780 0.9780 0.9780
1993.905292 0.9780 0.9780 0.9780 0.9780 0.9780
1998.260701 0.9780 0.9760 0.9760 0.9755 0.9750
2002.616109 0.9745 0.9740 0.9730 0.9720 0.9715
2006.971518 0.9710 0.9710 0.9710 0.9710 0.9710
2011.326926 0.9710 0.9710 0.9710 0.9710 0.9710
2015.682334 0.9710 0.9710 0.9710 0.9700 0.9690
2020.037743 0.9690 0.9690 0.9685 0.9680 0.9675
2024.393151 0.9670 0.9660 0.9650 0.9645 0.9640
2028.748560 0.9635 0.9630 0.9630 0.9630 0.9620
2033.103968 0.9610 0.9610 0.9610 0.9605 0.9600
2037.459376 0.9600 0.9600 0.9600 0.9600 0.9600
2041.814785 0.9600 0.9600 0.9600 0.9600 0.9600
2046.170193 0.9600 0.9600 0.9600 0.9600 0.9605
2050.525602 0.9610 0.9620 0.9630 0.9630 0.9630
2054.881010 0.9640 0.9650 0.9660 0.9670 0.9675
2059.236418 0.9680 0.9685 0.9690 0.9700 0.9710
2063.591827 0.9730 0.9750 0.9755 0.9760 0.9760
2067.947235 0.9760 0.9760 0.9760 0.9770 0.9780
2072.302644 0.9780 0.9780 0.9780 0.9780 0.9780
2076.658052 0.9780 0.9785 0.9790 0.9790 0.9790
2081.013460 0.9790 0.9790 0.9795 0.9800 0.9800
2085.368869 0.9800 0.9810 0.9820 0.9820 0.9820
2089.724277 0.9820 0.9820 0.9820 0.9820 0.9820
2094.079686 0.9820 0.9820 0.9820 0.9820 0.9820
2098.435094 0.9825 0.9830 0.9830 0.9830 0.9835
2102.790502 0.9840 0.9840 0.9840 0.9840 0.9840
2107.145911 0.9840 0.9840 0.9840 0.9840 0.9840
2111.501319 0.9840 0.9840 0.9840 0.9840 0.9840
2115.856728 0.9840 0.9840 0.9840 0.9840 0.9840
2120.212136 0.9840 0.9835 0.9830 0.9830 0.9830
2124.567544 0.9830 0.9830 0.9830 0.9830 0.9830
2128.922953 0.9830 0.9830 0.9830 0.9830 0.9830
2133.278361 0.9830 0.9830 0.9830 0.9830 0.9830
2137.633770 0.9830 0.9830 0.9830 0.9830 0.9830
2141.989178 0.9830 0.9830 0.9835 0.9840 0.9835
2146.344586 0.9830 0.9830 0.9830 0.9830 0.9830
2150.699995 0.9830 0.9830 0.9830 0.9830 0.9830
2155.055403 0.9830 0.9830 0.9830 0.9835 0.9840
2159.410812 0.9835 0.9830 0.9830 0.9830 0.9830
2163.766220 0.9830 0.9830 0.9830 0.9830 0.9830
2168.121628 0.9835 0.9840 0.9840 0.9840 0.9840
2172.477037 0.9840 0.9835 0.9830 0.9830 0.9830
2176.832445 0.9830 0.9830 0.9830 0.9830 0.9830
2181.187854 0.9830 0.9830 0.9830 0.9830 0.9830
2185.543262 0.9835 0.9840 0.9835 0.9830 0.9830
2189.898670 0.9830 0.9830 0.9830 0.9830 0.9830
2194.254079 0.9830 0.9830 0.9830 0.9830 0.9825
2198.609487 0.9820 0.9820 0.9819 0.9804 0.9790
2202.964896 0.9790 0.9790 0.9785 0.9780 0.9780
2207.320304 0.9780 0.9785 0.9790 0.9790 0.9790
2211.675712 0.9790 0.9790 0.9785 0.9780 0.9780
2216.031121 0.9780 0.9785 0.9790 0.9790 0.9790
2220.386529 0.9790 0.9790 0.9790 0.9790 0.9785
2224.741938 0.9780 0.9780 0.9780 0.9780 0.9780
2229.097346 0.9780 0.9780 0.9780 0.9780 0.9785
2233.452754 0.9790 0.9790 0.9790 0.9790 0.9790
2237.808163 0.9790 0.9790 0.9790 0.9790 0.9795
2242.163571 0.9800 0.9800 0.9801 0.9811 0.9820
2246.518980 0.9820 0.9820 0.9820 0.9820 0.9820
2250.874388 0.9820 0.9820 0.9820 0.9820 0.9820
2255.229796 0.9820 0.9820 0.9825 0.9830 0.9830
2259.585205 0.9830 0.9830 0.9830 0.9830 0.9830
2263.940613 0.9830 0.9830 0.9830 0.9830 0.9830
2268.296022 0.9830 0.9830 0.9830 0.9830 0.9830
2272.651430 0.9830 0.9830 0.9830 0.9830 0.9830
2277.006838 0.9830 0.9830 0.9830 0.9835 0.9840
2281.362247 0.9840 0.9840 0.9840 0.9840 0.9840
2285.717655 0.9840 0.9840 0.9840 0.9840 0.9840
2290.073064 0.9840 0.9840 0.9840 0.9840 0.9840
2294.428472 0.9840 0.9840 0.9840 0.9840 0.9840
2298.783881 0.9840 0.9840 0.9840 0.9841 0.9851
2303.139289 0.9860 0.9860 0.9860 0.9860 0.9860
2307.494697 0.9860 0.9860 0.9860 0.9860 0.9865
2311.850106 0.9871 0.9881 0.9890 0.9890 0.9891
2316.205514 0.9896 0.9899 0.9894 0.9889 0.9879
2320.560923 0.9869 0.9864 0.9860 0.9860 0.9859
2324.916331 0.9849 0.9840 0.9840 0.9840 0.9840
2329.271739 0.9840 0.9840 0.9840 0.9840 0.9840
2333.627148 0.9840 0.9840 0.9840 0.9840 0.9840
2337.982556 0.9840 0.9840 0.9840 0.9840 0.9840
2342.337965 0.9840 0.9840 0.9840 0.9840 0.9840
2346.693373 0.9840 0.9840 0.9840 0.9840 0.9840
2351.048781 0.9840 0.9840 0.9840 0.9840 0.9840
2355.404190 0.9840 0.9840 0.9840 0.9840 0.9840
2359.759598 0.9840 0.9840 0.9840 0.9841 0.9851
2364.115007 0.9860 0.9860 0.9860 0.9860 0.9860
2368.470415 0.9860 0.9860 0.9860 0.9860 0.9860
2372.825823 0.9860 0.9860 0.9860 0.9860 0.9861
2377.181232 0.9866 0.9870 0.9870 0.9870 0.9870
2381.536640 0.9869 0.9864 0.9856 0.9826 0.9799
2385.892049 0.9789 0.9779 0.9769 0.9760 0.9760
2390.247457 0.9760 0.9760 0.9760 0.9760 0.9759
2394.602865 0.9754 0.9750 0.9750 0.9750 0.9750
2398.958274 0.9749 0.9744 0.9740 0.9740 0.9740
2403.313682 0.9740 0.9740 0.9740 0.9740 0.9740
2407.669091 0.9739 0.9729 0.9720 0.9720 0.9720
2412.024499 0.9720 0.9720 0.9720 0.9720 0.9720
2416.379907 0.9719 0.9714 0.9710 0.9710 0.9710
2420.735316 0.9710 0.9710 0.9710 0.9709 0.9699
2425.090724 0.9690 0.9690 0.9690 0.9690 0.9690
2429.446133 0.9690 0.9690 0.9690 0.9689 0.9684
2433.801541 0.9680 0.9680 0.9680 0.9680 0.9680
2438.156949 0.9680 0.9680 0.9680 0.9680 0.9680
2442.512358 0.9680 0.9680 0.9680 0.9680 0.9679
2446.867766 0.9674 0.9670 0.9670 0.9670 0.9670
2451.223175 0.9669 0.9659 0.9649 0.9644 0.9640
2455.578583 0.9640 0.9640 0.9640 0.9639 0.9634
2459.933991 0.9630 0.9630 0.9629 0.9619 0.9610
2464.289400 0.9610 0.9610 0.9610 0.9609 0.9604
2468.644808 0.9600 0.9600 0.9600 0.9600 0.9600
2473.000217 0.9600 0.9599 0.9594 0.9588 0.9578
2477.355625 0.9569 0.9564 0.9560 0.9560 0.9558
2481.711033 0.9548 0.9540 0.9540 0.9539 0.9534
2486.066442 0.9530 0.9530 0.9529 0.9524 0.9520
2490.421850 0.9520 0.9518 0.9508 0.9500 0.9500
2494.777259 0.9499 0.9494 0.9489 0.9484 0.9480
2499.132667 0.9480 0.9480 0.9480 0.9480 0.9480
2503.488075 0.9480 0.9480 0.9480 0.9480 0.9478
2507.843484 0.9468 0.9459 0.9454 0.9450 0.9450
2512.198892 0.9450 0.9450 0.9450 0.9450 0.9451
2516.554301 0.9456 0.9460 0.9460 0.9460 0.9460
2520.909709 0.9460 0.9460 0.9460 0.9460 0.9460
2525.265117 0.9460 0.9460 0.9460 0.9460 0.9460
2529.620526 0.9460 0.9460 0.9462 0.9472 0.9480
2533.975934 0.9480 0.9481 0.9486 0.9490 0.9490
2538.331343 0.9490 0.9490 0.9490 0.9490 0.9491
2542.686751 0.9496 0.9500 0.9500 0.9500 0.9500
2547.042159 0.9500 0.9500 0.9500 0.9500 0.9500
2551.397568 0.9500 0.9500 0.9500 0.9500 0.9500
2555.752976 0.9500 0.9500 0.9500 0.9500 0.9499
2560.108385 0.9494 0.9490 0.9490 0.9490 0.9490
2564.463793 0.9490 0.9490 0.9490 0.9490 0.9490
2568.819202 0.9490 0.9489 0.9484 0.9480 0.9480
2573.174610 0.9480 0.9480 0.9480 0.9480 0.9480
2577.530018 0.9480 0.9480 0.9480 0.9480 0.9480
2581.885427 0.9480 0.9480 0.9480 0.9480 0.9481
2586.240835 0.9486 0.9490 0.9490 0.9490 0.9490
2590.596244 0.9491 0.9496 0.9500 0.9500 0.9502
2594.951652 0.9512 0.9520 0.9520 0.9520 0.9520
2599.307060 0.9520 0.9520 0.9520 0.9520 0.9521
2603.662469 0.9526 0.9530 0.9530 0.9530 0.9530
2608.017877 0.9531 0.9536 0.9540 0.9540 0.9540
2612.373286 0.9540 0.9542 0.9552 0.9560 0.9560
2616.728694 0.9560 0.9560 0.9560 0.9560 0.9561
2621.084102 0.9566 0.9572 0.9582 0.9590 0.9590
2625.439511 0.9591 0.9596 0.9600 0.9600 0.9600
2629.794919 0.9600 0.9599 0.9594 0.9590 0.9590
2634.150328 0.9590 0.9590 0.9590 0.9590 0.9590
2638.505736 0.9590 0.9591 0.9596 0.9600 0.9600
2642.861144 0.9600 0.9600 0.9600 0.9600 0.9600
2647.216553 0.9600 0.9600 0.9600 0.9600 0.9600
2651.571961 0.9600 0.9600 0.9600 0.9600 0.9600
2655.927370 0.9600 0.9600 0.9600 0.9600 0.9600
2660.282778 0.9600 0.9600 0.9600 0.9600 0.9600
2664.638186 0.9600 0.9600 0.9600 0.9599 0.9594
2668.993595 0.9590 0.9590 0.9590 0.9590 0.9588
2673.349003 0.9578 0.9570 0.9570 0.9570 0.9570
2677.704412 0.9570 0.9570 0.9570 0.9570 0.9570
2682.059820 0.9570 0.9570 0.9570 0.9570 0.9570
2686.415228 0.9570 0.9570 0.9570 0.9570 0.9570
2690.770637 0.9570 0.9570 0.9570 0.9570 0.9570
2695.126045 0.9569 0.9564 0.9558 0.9548 0.9540
2699.481454 0.9540 0.9540 0.9540 0.9539 0.9534
2703.836862 0.9530 0.9530 0.9527 0.9512 0.9500
2708.192270 0.9500 0.9500 0.9500 0.9499 0.9494
2712.547679 0.9490 0.9490 0.9489 0.9484 0.9480
2716.903087 0.9480 0.9478 0.9468 0.9460 0.9460
2721.258496 0.9455 0.9435 0.9419 0.9414 0.9410
2725.613904 0.9410 0.9408 0.9398 0.9389 0.9384
2729.969312 0.9379 0.9374 0.9366 0.9351 0.9336
2734.324721 0.9321 0.9310 0.9310 0.9306 0.9291
2738.680129 0.9279 0.9274 0.9269 0.9264 0.9258
2743.035538 0.9248 0.9235 0.9215 0.9194 0.9169
2747.390946 0.9148 0.9138 0.9127 0.9117 0.9106
2751.746354 0.9091 0.9076 0.9061 0.9045 0.9025
2756.101763 0.9009 0.9004 0.8998 0.8988 0.8975
2760.457171 0.8955 0.8938 0.8928 0.8916 0.8901
2764.812580 0.8886 0.8871 0.8855 0.8835 0.8819
2769.167988 0.8814 0.8806 0.8791 0.8775 0.8755
2773.523396 0.8735 0.8715 0.8692 0.8662 0.8639
2777.878805 0.8634 0.8630 0.8630 0.8623 0.8593
2782.234213 0.8564 0.8539 0.8516 0.8501 0.8483
2786.589622 0.8458 0.8432 0.8402 0.8375 0.8355
2790.945030 0.8335 0.8315 0.8290 0.8250 0.8211
2795.300438 0.8176 0.8145 0.8125 0.8109 0.8104
2799.655847 0.8087 0.8037 0.7986 0.7936 0.7878
2804.011255 0.7798 0.7733 0.7708 0.7675 0.7620
2808.366664 0.7569 0.7529 0.7474 0.7374 0.7274
2812.722072 0.7174 0.7078 0.6993 0.6908 0.6823
2817.077480 0.6738 0.6652 0.6553 0.6418 0.6280
2821.432889 0.6135 0.5989 0.5839 0.5674 0.5469
2825.788297 0.5283 0.5148 0.5011 0.4866 0.4757
2830.143706 0.4747 0.4741 0.4746 0.4777 0.4877
2834.499114 0.4978 0.5084 0.5188 0.5288 0.5385
2838.854522 0.5475 0.5581 0.5726 0.5876 0.6041
2843.209931 0.6203 0.6358 0.6506 0.6636 0.6745
2847.565339 0.6800 0.6870 0.6980 0.7076 0.7136
2851.920748 0.7195 0.7251 0.7297 0.7322 0.7349
2856.276156 0.7379 0.7400 0.7400 0.7399 0.7394
2860.631565 0.7390 0.7390 0.7387 0.7377 0.7369
2864.986973 0.7364 0.7357 0.7347 0.7339 0.7334
2869.342381 0.7329 0.7324 0.7316 0.7301 0.7286
2873.697790 0.7271 0.7257 0.7247 0.7233 0.7208
2878.053198 0.7189 0.7184 0.7170 0.7135 0.7104
2882.408607 0.7084 0.7059 0.7019 0.6980 0.6945
2886.764015 0.6909 0.6868 0.6831 0.6801 0.6768
2891.119423 0.6728 0.6682 0.6622 0.6562 0.6502
2895.474832 0.6447 0.6402 0.6370 0.6370 0.6348
2899.830240 0.6273 0.6198 0.6123 0.6045 0.5960
2904.185649 0.5874 0.5783 0.5697 0.5622 0.5552
2908.541057 0.5492 0.5424 0.5339 0.5256 0.5176
2912.896465 0.5108 0.5068 0.5037 0.5027 0.5020
2917.251874 0.5020 0.5023 0.5033 0.5040 0.5040
2921.607282 0.5040 0.5040 0.5040 0.5040 0.5035
2925.962691 0.5020 0.5008 0.5003 0.4989 0.4954
2930.318099 0.4919 0.4884 0.4839 0.4769 0.4708
2934.673507 0.4668 0.4596 0.4451 0.4327 0.4252
2939.028916 0.4171 0.4075 0.3981 0.3891 0.3827
2943.384324 0.3817 0.3810 0.3810 0.3812 0.3817
2947.739733 0.3828 0.3853 0.3895 0.3975 0.4060
2952.095141 0.4154 0.4245 0.4325 0.4402 0.4472
2956.450549 0.4537 0.4593 0.4654 0.4729 0.4798
2960.805958 0.4853 0.4921 0.5015 0.5128 0.5278
2965.161366 0.5382 0.5387 0.5406 0.5456 0.5490
2969.516775 0.5490 0.5492 0.5497 0.5500 0.5500
2973.872183 0.5500 0.5500 0.5502 0.5507 0.5510
2978.227591 0.5510 0.5515 0.5530 0.5543 0.5553
2982.583000 0.5568 0.5593 0.5615 0.5630 0.5648
2986.938408 0.5673 0.5701 0.5736 0.5779 0.5839
2991.293817 0.5903 0.5973 0.6044 0.6113 0.6185
2995.649225 0.6260 0.6317 0.6337 0.6375 0.6450
3000.004633 0.6520 0.6580 0.6646 0.6726 0.6814
3004.360042 0.6919 0.7013 0.7083 0.7140 0.7170
3008.715450 0.7208 0.7263 0.7315 0.7360 0.7400
3013.070859 0.7430 0.7475 0.7550 0.7622 0.7687
3017.426267 0.7732 0.7737 0.7747 0.7767 0.7790
3021.781675 0.7820 0.7850 0.7880 0.7905 0.7920
3026.137084 0.7935 0.7950 0.7967 0.7987 0.8005
3030.492492 0.8020 0.8037 0.8057 0.8077 0.8097
3034.847901 0.8115 0.8130 0.8140 0.8140 0.8143
3039.203309 0.8153 0.8168 0.8193 0.8213 0.8223
3043.558717 0.8235 0.8250 0.8265 0.8280 0.8292
3047.914126 0.8297 0.8302 0.8307 0.8313 0.8323
3052.269534 0.8332 0.8337 0.8343 0.8353 0.8362
3056.624943 0.8367 0.8370 0.8370 0.8372 0.8377
3060.980351 0.8380 0.8380 0.8384 0.8394 0.8400
3065.335759 0.8400 0.8400 0.8400 0.8400 0.8400
3069.691168 0.8400 0.8400 0.8402 0.8407 0.8410
3074.046576 0.8410 0.8410 0.8410 0.8410 0.8410
3078.401985 0.8410 0.8410 0.8410 0.8410 0.8410
3082.757393 0.8410 0.8410 0.8410 0.8410 0.8410
3087.112801 0.8410 0.8410 0.8410 0.8410 0.8410
3091.468210 0.8410 0.8408 0.8403 0.8400 0.8400
3095.823618 0.8396 0.8386 0.8380 0.8380 0.8378
3100.179027 0.8373 0.8364 0.8349 0.8338 0.8333
3104.534435 0.8326 0.8316 0.8310 0.8310 0.8308
3108.889843 0.8303 0.8298 0.8293 0.8283 0.8263
3113.245252 0.8246 0.8236 0.8228 0.8223 0.8220
3117.600660 0.8220 0.8218 0.8213 0.8206 0.8196
3121.956069 0.8184 0.8169 0.8158 0.8153 0.8148
3126.311477 0.8143 0.8136 0.8126 0.8118 0.8113
3130.666885 0.8104 0.8089 0.8070 0.8045 0.8024
3135.022294 0.8009 0.7994 0.7979 0.7970 0.7970
3139.377702 0.7968 0.7963 0.7958 0.7953 0.7937
3143.733111 0.7902 0.7873 0.7853 0.7836 0.7826
3148.088519 0.7816 0.7806 0.7796 0.7786 0.7770
3152.443928 0.7745 0.7718 0.7688 0.7666 0.7656
3156.799336 0.7640 0.7615 0.7598 0.7593 0.7584
3161.154744 0.7569 0.7551 0.7526 0.7502 0.7482
3165.510153 0.7462 0.7442 0.7426 0.7416 0.7394
3169.865561 0.7354 0.7322 0.7302 0.7280 0.7255
3174.220970 0.7226 0.7191 0.7164 0.7149 0.7134
3178.576378 0.7119 0.7108 0.7103 0.7094 0.7079
3182.931786 0.7056 0.7021 0.6992 0.6972 0.6954
3187.287195 0.6939 0.6928 0.6923 0.6910 0.6885
3191.642603 0.6852 0.6807 0.6770 0.6745 0.6716
3195.998012 0.6681 0.6658 0.6653 0.6638 0.6608
3200.353420 0.6578 0.6548 0.6516 0.6481 0.6452
3204.708828 0.6432 0.6402 0.6357 0.6326 0.6316
3209.064237 0.6302 0.6282 0.6252 0.6207 0.6170
3213.419645 0.6145 0.6124 0.6109 0.6094 0.6079
3217.775054 0.6066 0.6056 0.6031 0.5986 0.5942
3222.130462 0.5897 0.5854 0.5814 0.5778 0.5748
3226.485870 0.5712 0.5667 0.5632 0.5612 0.5586
3230.841279 0.5551 0.5516 0.5481 0.5438 0.5383
3235.196687 0.5348 0.5343 0.5319 0.5269 0.5225
3239.552096 0.5190 0.5160 0.5135 0.5108 0.5078
3243.907504 0.5050 0.5025 0.5004 0.4989 0.4966
3248.262912 0.4931 0.4900 0.4875 0.4844 0.4804
3252.618321 0.4768 0.4737 0.4709 0.4684 0.4657
3256.973729 0.4627 0.4595 0.4560 0.4530 0.4505
3261.329138 0.4477 0.4447 0.4420 0.4395 0.4372
3265.684546 0.4352 0.4332 0.4312 0.4288 0.4258
3270.039954 0.4223 0.4183 0.4143 0.4103 0.4065
3274.395363 0.4030 0.4004 0.3989 0.3978 0.3973
3278.750771 0.3955 0.3920 0.3885 0.3850 0.3817
3283.106180 0.3787 0.3760 0.3735 0.3716 0.3706
3287.461588 0.3694 0.3679 0.3661 0.3641 0.3623
3291.816996 0.3609 0.3589 0.3564 0.3546 0.3536
3296.172405 0.3528 0.3523 0.3514 0.3499 0.3484
3300.527813 0.3469 0.3458 0.3453 0.3444 0.3429
3304.883222 0.3416 0.3406 0.3396 0.3386 0.3378
3309.238630 0.3373 0.3363 0.3348 0.3333 0.3318
3313.594038 0.3310 0.3310 0.3308 0.3303 0.3298
3317.949447 0.3293 0.3286 0.3276 0.3268 0.3263
3322.304855 0.3258 0.3253 0.3250 0.3250 0.3246
3326.660264 0.3236 0.3230 0.3230 0.3230 0.3230
3331.015672 0.3230 0.3230 0.3234 0.3244 0.3250
3335.371080 0.3250 0.3250 0.3250 0.3250 0.3250
3339.726489 0.3252 0.3257 0.3262 0.3267 0.3270
3344.081897 0.3270 0.3275 0.3284 0.3290 0.3290
3348.437306 0.3290 0.3290 0.3294 0.3304 0.3310
3352.792714 0.3310 0.3314 0.3324 0.3332 0.3337
3357.148122 0.3344 0.3355 0.3360 0.3360 0.3365
3361.503531 0.3375 0.3385 0.3395 0.3409 0.3429
3365.858939 0.3440 0.3440 0.3442 0.3447 0.3452
3370.214348 0.3457 0.3473 0.3503 0.3522 0.3527
3374.569756 0.3535 0.3545 0.3552 0.3557 0.3567
3378.925164 0.3582 0.3597 0.3612 0.3625 0.3635
3383.280573 0.3649 0.3669 0.3685 0.3695 0.3702
3387.635981 0.3707 0.3717 0.3732 0.3751 0.3776
3391.991390 0.3797 0.3812 0.3832 0.3857 0.3875
3396.346798 0.3885 0.3902 0.3927 0.3945 0.3955
3400.702206 0.3976 0.4011 0.4042 0.4067 0.4087
3405.057615 0.4102 0.4112 0.4117 0.4127 0.4142
3409.413023 0.4157 0.4172 0.4190 0.4210 0.4234
3413.768432 0.4264 0.4292 0.4317 0.4332 0.4337
3418.123840 0.4347 0.4362 0.4384 0.4414 0.4437
3422.479248 0.4452 0.4467 0.4482 0.4502 0.4527
3426.834657 0.4545 0.4555 0.4577 0.4612 0.4640
3431.190065 0.4660 0.4675 0.4685 0.4704 0.4734
3435.545474 0.4757 0.4772 0.4782 0.4787 0.4799
3439.900882 0.4819 0.4844 0.4874 0.4904 0.4934
3444.256291 0.4957 0.4972 0.4990 0.5010 0.5027
3448.611699 0.5042 0.5057 0.5072 0.5085 0.5095
3452.967107 0.5107 0.5122 0.5147 0.5182 0.5207
3457.322516 0.5222 0.5232 0.5237 0.5257 0.5292
3461.677924 0.5327 0.5362 0.5382 0.5387 0.5407
3466.033333 0.5442 0.5467 0.5482 0.5502 0.5527
3470.388741 0.5555 0.5585 0.5605 0.5615 0.5625
3474.744149 0.5635 0.5659 0.5699 0.5722 0.5727
3479.099558 0.5745 0.5775 0.5810 0.5850 0.5877
3483.454966 0.5892 0.5902 0.5907 0.5917 0.5932
3487.810375 0.5950 0.5970 0.5990 0.6010 0.6030
3492.165783 0.6050 0.6077 0.6112 0.6140 0.6160
3496.521191 0.6177 0.6193 0.6210 0.6230 0.6250
3500.876600 0.6270 0.6293 0.6318 0.6348 0.6383
3505.232008 0.6410 0.6430 0.6445 0.6455 0.6470
3509.587417 0.6490 0.6520 0.6560 0.6590 0.6610
3513.942825 0.6630 0.6650 0.6668 0.6683 0.6700
3518.298233 0.6720 0.6743 0.6768 0.6805 0.6855
3522.653642 0.6893 0.6918 0.6935 0.6945 0.6970
3527.009050 0.7010 0.7038 0.7053 0.7070 0.7090
3531.364459 0.7123 0.7168 0.7206 0.7235 0.7258
3535.719867 0.7273 0.7283 0.7288 0.7308 0.7343
3540.075275 0.7380 0.7420 0.7466 0.7515 0.7550
3544.430684 0.7570 0.7590 0.7610 0.7633 0.7658
3548.786092 0.7685 0.7716 0.7748 0.7783 0.7821
3553.141501 0.7861 0.7898 0.7933 0.7971 0.8011
3557.496909 0.8043 0.8068 0.8095 0.8125 0.8158
3561.852317 0.8193 0.8225 0.8255 0.8280 0.8300
3566.207726 0.8323 0.8348 0.8373 0.8398 0.8428
3570.563134 0.8463 0.8491 0.8511 0.8523 0.8528
3574.918543 0.8548 0.8583 0.8610 0.8630 0.8650
3579.273951 0.8670 0.8688 0.8703 0.8718 0.8733
3583.629359 0.8758 0.8794 0.8810 0.8810 0.8815
3587.984768 0.8825 0.8846 0.8876 0.8893 0.8898
3592.340176 0.8905 0.8915 0.8923 0.8928 0.8933
3596.695585 0.8938 0.8948 0.8963 0.8973 0.8978
3601.050993 0.8985 0.8995 0.9003 0.9008 0.9015
3605.406401 0.9025 0.9030 0.9030 0.9033 0.9038
3609.761810 0.9040 0.9040 0.9040 0.9040 0.9037
3614.117218 0.9032 0.9025 0.9015 0.9010 0.9010
3618.472627 0.9007 0.9002 0.8992 0.8977 0.8962
3622.828035 0.8947 0.8929 0.8909 0.8892 0.8877
3627.183443 0.8867 0.8862 0.8830 0.8775 0.8726
3631.538852 0.8681 0.8633 0.8583 0.8533 0.8483
3635.894260 0.8428 0.8367 0.8296 0.8216 0.8122
3640.249669 0.8017 0.7896 0.7761 0.7599 0.7414
3644.605077 0.7259 0.7129 0.7070 0.7070 0.7100
3648.960485 0.7155 0.7237 0.7342 0.7436 0.7521
3653.315894 0.7625 0.7746 0.7864 0.7979 0.8083
3657.671302 0.8178 0.8300 0.8445 0.8565 0.8665
3662.026711 0.8760 0.8850 0.8920 0.8975 0.9025
3666.382119 0.9070 0.9106 0.9136 0.9183 0.9243
3670.737527 0.9289 0.9325 0.9343 0.9348 0.9361
3675.092936 0.9381 0.9398 0.9413 0.9423 0.9428
3679.448344 0.9436 0.9446 0.9461 0.9481 0.9493
3683.803753 0.9498 0.9506 0.9516 0.9523 0.9528
3688.159161 0.9533 0.9538 0.9549 0.9564 0.9570
3692.514569 0.9570 0.9576 0.9586 0.9590 0.9590
3696.869978 0.9593 0.9598 0.9608 0.9623 0.9633
3701.225386 0.9638 0.9648 0.9663 0.9673 0.9678
3705.580795 0.9683 0.9688 0.9699 0.9714 0.9720
3709.936203 0.9720 0.9726 0.9736 0.9740 0.9740
3714.291611 0.9743 0.9748 0.9750 0.9750 0.9753
3718.647020 0.9758 0.9766 0.9776 0.9783 0.9788
3723.002428 0.9790 0.9790 0.9793 0.9798 0.9800
3727.357837 0.9800 0.9806 0.9816 0.9820 0.9820
3731.713245 0.9823 0.9828 0.9830 0.9830 0.9833
3736.068654 0.9838 0.9840 0.9840 0.9849 0.9864
3740.424062 0.9870 0.9870 0.9876 0.9886 0.9893
3744.779470 0.9898 0.9903 0.9908 0.9910 0.9910
3749.134879 0.9916 0.9926 0.9930 0.9930 0.9921
3753.490287 0.9906 0.9900 0.9900 0.9897 0.9892
3757.845696 0.9884 0.9874 0.9870 0.9870 0.9867
3762.201104 0.9862 0.9860 0.9860 0.9860 0.9860
3766.556512 0.9860 0.9860 0.9860 0.9860 0.9863
3770.911921 0.9868 0.9870 0.9870 0.9870 0.9870
3775.267329 0.9870 0.9870 0.9876 0.9886 0.9893
3779.622738 0.9898 0.9900 0.9900
##END=
