##TITLE=ETHYL ALCOHOL
##JCAMP-DX=4.24
##DATA TYPE=INFRARED SPECTRUM
##CLASS=COBLENTZ
##OWNER=COBLENTZ SOCIETY
Collection (C) 2007 copyright by the U.S. Secretary of Commerce
on behalf of the United States of America. All rights reserved.
##DATE=1963/02/18
##NAMES=ETHANOL
##CAS REGISTRY NO=64-17-5
##MOLFORM=C2H6O
##SOURCE REFERENCE=COBLENTZ NO. 6986
##$NIST SOURCE=COBLENTZ
##$NIST IMAGE=cob6986
##SPECTROMETER/DATA SYSTEM=PERKIN-ELMER 21 (GRATING)
##STATE=GAS (VAPOR)
##PATH LENGTH=10 CM
##SAMPLING PROCEDURE=TRANSMISSION
##RESOLUTION=4
##DATA PROCESSING=DIGITIZED BY NIST FROM HARD COPY
##XUNITS=MICROMETERS
##YUNITS=TRANSMITTANCE
##XFACTOR=1.000000
##YFACTOR=1
##DELTAX=000.004756
##FIRSTX=2.02
##LASTX=15.0145
##FIRSTY=0.753
##MAXX=15.0145
##MINX=2.02
##MAXY=0.842
##MINY=0.094
##NPOINTS=2733
##XYDATA=(X++(Y..Y))
2.020000 0.7530 0.7530 0.7530 0.7530 0.7530
2.043790 0.7530 0.7530 0.7530 0.7520 0.7520
2.068000 0.7520 0.7520 0.7520 0.7520 0.7520
2.091790 0.7530 0.7540 0.7550 0.7550 0.7550
2.115000 0.7550 0.7570 0.7570 0.7570 0.7570
2.138790 0.7580 0.7590 0.7600 0.7610 0.7630
2.163000 0.7630 0.7630 0.7630 0.7630 0.7640
2.186790 0.7640 0.7650 0.7650 0.7660 0.7670
2.210000 0.7690 0.7670 0.7670 0.7690 0.7690
2.233790 0.7690 0.7690 0.7700 0.7700 0.7710
2.258000 0.7710 0.7710 0.7710 0.7710 0.7710
2.281790 0.7710 0.7710 0.7710 0.7710 0.7710
2.306000 0.7700 0.7690 0.7690 0.7660 0.7650
2.329790 0.7640 0.7630 0.7630 0.7630 0.7610
2.353000 0.7610 0.7610 0.7610 0.7610 0.7610
2.376790 0.7630 0.7640 0.7650 0.7650 0.7660
2.401000 0.7670 0.7690 0.7700 0.7700 0.7700
2.424790 0.7710 0.7710 0.7710 0.7710 0.7720
2.448000 0.7720 0.7730 0.7730 0.7730 0.7730
2.471790 0.7730 0.7730 0.7730 0.7730 0.7750
2.496000 0.7750 0.7760 0.7760 0.7750 0.7750
2.519790 0.7750 0.7750 0.7750 0.7750 0.7750
2.543000 0.7750 0.7750 0.7750 0.7750 0.7750
2.566790 0.7760 0.7760 0.7770 0.7770 0.7770
2.591000 0.7770 0.7780 0.7780 0.7780 0.7780
2.614790 0.7780 0.7780 0.7780 0.7780 0.7790
2.639000 0.7790 0.7790 0.7790 0.7800 0.7800
2.662790 0.7800 0.7820 0.7830 0.7830 0.7830
2.686000 0.7840 0.7840 0.7850 0.7850 0.7820
2.709790 0.7730 0.7600 0.7460 0.7190 0.6970
2.734000 0.6730 0.6450 0.6350 0.5840 0.5760
2.757790 0.5760 0.5800 0.5970 0.6600 0.6800
2.781000 0.7010 0.7210 0.7500 0.7530 0.7600
2.804790 0.7650 0.7690 0.7700 0.7720 0.7720
2.829000 0.7730 0.7760 0.7780 0.7790 0.7800
2.852790 0.7820 0.7820 0.7830 0.7830 0.7830
2.876000 0.7840 0.7840 0.7850 0.7860 0.7860
2.899790 0.7860 0.7860 0.7860 0.7860 0.7860
2.924000 0.7860 0.7860 0.7860 0.7880 0.7880
2.947790 0.7890 0.7900 0.7910 0.7910 0.7920
2.971000 0.7940 0.7950 0.7960 0.8000 0.8010
2.994790 0.8010 0.8020 0.8020 0.8020 0.8020
3.019000 0.8020 0.8020 0.8010 0.8010 0.8010
3.042790 0.8020 0.8020 0.8020 0.8020 0.8010
3.067000 0.8010 0.8000 0.8000 0.8000 0.8000
3.090790 0.8000 0.8000 0.7980 0.7970 0.7960
3.114000 0.7950 0.7940 0.7940 0.7920 0.7920
3.137790 0.7920 0.7940 0.7960 0.7980 0.7980
3.162000 0.8000 0.8000 0.8000 0.8010 0.8010
3.185790 0.8020 0.8020 0.8020 0.8020 0.8020
3.209000 0.8020 0.8020 0.8020 0.8020 0.8020
3.232790 0.8020 0.8020 0.8010 0.8010 0.8000
3.257000 0.7980 0.7970 0.7960 0.7890 0.7780
3.280790 0.7660 0.7510 0.7250 0.7010 0.6770
3.304000 0.6020 0.5520 0.5010 0.4340 0.4010
3.327790 0.3600 0.3080 0.2720 0.2510 0.2350
3.352000 0.2320 0.2250 0.2160 0.2100 0.2040
3.375790 0.2020 0.2010 0.2020 0.2040 0.2160
3.400000 0.2270 0.2350 0.2420 0.2470 0.2500
3.423790 0.2510 0.2510 0.2510 0.2510 0.2500
3.447000 0.2480 0.2450 0.2440 0.2450 0.2470
3.470790 0.2500 0.2550 0.2640 0.2880 0.3080
3.495000 0.3290 0.3460 0.3630 0.4040 0.4460
3.518790 0.4880 0.5290 0.5410 0.5640 0.5880
3.542000 0.6030 0.6260 0.6380 0.6510 0.6580
3.565790 0.6640 0.6670 0.6700 0.6780 0.6820
3.590000 0.6860 0.6900 0.6950 0.7020 0.7100
3.613790 0.7130 0.7160 0.7200 0.7250 0.7280
3.637000 0.7320 0.7340 0.7380 0.7420 0.7460
3.660790 0.7500 0.7510 0.7570 0.7590 0.7610
3.685000 0.7640 0.7690 0.7700 0.7720 0.7730
3.708790 0.7730 0.7750 0.7760 0.7770 0.7790
3.732000 0.7820 0.7820 0.7830 0.7890 0.7910
3.755790 0.7910 0.7910 0.7920 0.7920 0.7940
3.780000 0.7950 0.7970 0.8000 0.8010 0.8010
3.803790 0.8020 0.8020 0.8020 0.8020 0.8030
3.828000 0.8080 0.8080 0.8090 0.8090 0.8090
3.851790 0.8090 0.8090 0.8100 0.8100 0.8100
3.875000 0.8110 0.8110 0.8110 0.8110 0.8110
3.898790 0.8110 0.8110 0.8110 0.8110 0.8110
3.923000 0.8110 0.8110 0.8110 0.8110 0.8130
3.946790 0.8140 0.8140 0.8150 0.8150 0.8150
3.970000 0.8160 0.8160 0.8170 0.8190 0.8190
3.993790 0.8190 0.8190 0.8190 0.8190 0.8190
4.018000 0.8190 0.8190 0.8190 0.8170 0.8170
4.041790 0.8170 0.8160 0.8160 0.8160 0.8150
4.065000 0.8150 0.8150 0.8160 0.8170 0.8190
4.088790 0.8200 0.8200 0.8210 0.8210 0.8210
4.113000 0.8210 0.8210 0.8210 0.8210 0.8210
4.136790 0.8210 0.8210 0.8210 0.8210 0.8200
4.161000 0.8190 0.8190 0.8190 0.8190 0.8210
4.184790 0.8220 0.8230 0.8250 0.8250 0.8260
4.208000 0.8260 0.8270 0.8280 0.8280 0.8290
4.231790 0.8290 0.8300 0.8320 0.8320 0.8330
4.256000 0.8340 0.8340 0.8340 0.8340 0.8340
4.279790 0.8340 0.8340 0.8340 0.8350 0.8350
4.303000 0.8350 0.8350 0.8350 0.8350 0.8350
4.326790 0.8360 0.8360 0.8360 0.8360 0.8360
4.351000 0.8360 0.8360 0.8360 0.8360 0.8360
4.374790 0.8350 0.8340 0.8300 0.8290 0.8280
4.398000 0.8270 0.8260 0.8230 0.8230 0.8230
4.421790 0.8230 0.8230 0.8230 0.8230 0.8230
4.446000 0.8230 0.8230 0.8230 0.8230 0.8230
4.469790 0.8230 0.8250 0.8250 0.8250 0.8250
4.493000 0.8260 0.8270 0.8270 0.8260 0.8260
4.516790 0.8260 0.8270 0.8280 0.8290 0.8300
4.541000 0.8300 0.8320 0.8320 0.8320 0.8320
4.564790 0.8300 0.8300 0.8300 0.8300 0.8300
4.589000 0.8290 0.8280 0.8280 0.8280 0.8280
4.612790 0.8280 0.8270 0.8270 0.8270 0.8270
4.636000 0.8280 0.8280 0.8280 0.8290 0.8280
4.659790 0.8280 0.8270 0.8260 0.8260 0.8260
4.684000 0.8250 0.8250 0.8250 0.8230 0.8230
4.707790 0.8230 0.8230 0.8230 0.8250 0.8250
4.731000 0.8230 0.8220 0.8220 0.8210 0.8210
4.754790 0.8230 0.8250 0.8250 0.8250 0.8260
4.779000 0.8260 0.8260 0.8260 0.8270 0.8270
4.802790 0.8270 0.8280 0.8280 0.8290 0.8300
4.826000 0.8320 0.8320 0.8320 0.8320 0.8320
4.849790 0.8300 0.8300 0.8300 0.8300 0.8300
4.874000 0.8300 0.8320 0.8320 0.8320 0.8330
4.897790 0.8340 0.8350 0.8350 0.8350 0.8350
4.922000 0.8350 0.8350 0.8350 0.8350 0.8350
4.945790 0.8350 0.8350 0.8350 0.8350 0.8350
4.969000 0.8350 0.8350 0.8350 0.8350 0.8350
4.992790 0.8350 0.8350 0.8340 0.8330 0.8330
5.017000 0.8330 0.8330 0.8320 0.8320 0.8320
5.040790 0.8320 0.8320 0.8300 0.8300 0.8300
5.064000 0.8290 0.8280 0.8270 0.8270 0.8270
5.087790 0.8260 0.8260 0.8260 0.8260 0.8250
5.112000 0.8230 0.8230 0.8220 0.8210 0.8200
5.135790 0.8190 0.8190 0.8170 0.8160 0.8150
5.159000 0.8140 0.8130 0.8110 0.8110 0.8100
5.182790 0.8100 0.8100 0.8110 0.8110 0.8130
5.207000 0.8130 0.8130 0.8140 0.8140 0.8140
5.230790 0.8150 0.8160 0.8170 0.8190 0.8200
5.254000 0.8200 0.8200 0.8210 0.8220 0.8230
5.277790 0.8260 0.8270 0.8280 0.8280 0.8280
5.302000 0.8290 0.8290 0.8300 0.8300 0.8300
5.325790 0.8320 0.8320 0.8320 0.8330 0.8340
5.350000 0.8350 0.8350 0.8360 0.8360 0.8360
5.373790 0.8360 0.8380 0.8360 0.8350 0.8350
5.397000 0.8350 0.8350 0.8350 0.8350 0.8360
5.420790 0.8380 0.8380 0.8390 0.8390 0.8390
5.445000 0.8390 0.8390 0.8390 0.8390 0.8390
5.468790 0.8400 0.8410 0.8410 0.8410 0.8410
5.492000 0.8400 0.8390 0.8380 0.8360 0.8350
5.515790 0.8340 0.8340 0.8340 0.8340 0.8340
5.540000 0.8340 0.8350 0.8350 0.8350 0.8350
5.563790 0.8350 0.8350 0.8350 0.8350 0.8340
5.587000 0.8330 0.8300 0.8290 0.8280 0.8280
5.610790 0.8270 0.8260 0.8250 0.8230 0.8230
5.635000 0.8220 0.8220 0.8210 0.8200 0.8150
5.658790 0.8140 0.8130 0.8110 0.8110 0.8110
5.683000 0.8110 0.8110 0.8130 0.8150 0.8160
5.706790 0.8190 0.8210 0.8210 0.8220 0.8230
5.730000 0.8230 0.8250 0.8260 0.8270 0.8280
5.753790 0.8300 0.8320 0.8330 0.8330 0.8330
5.778000 0.8330 0.8330 0.8330 0.8330 0.8320
5.801790 0.8320 0.8330 0.8330 0.8340 0.8340
5.825000 0.8350 0.8350 0.8340 0.8340 0.8330
5.848790 0.8330 0.8330 0.8330 0.8330 0.8340
5.873000 0.8350 0.8360 0.8360 0.8380 0.8360
5.896790 0.8350 0.8350 0.8350 0.8350 0.8350
5.920000 0.8350 0.8360 0.8360 0.8360 0.8360
5.943790 0.8350 0.8340 0.8340 0.8330 0.8330
5.968000 0.8330 0.8330 0.8330 0.8330 0.8330
5.991790 0.8340 0.8340 0.8340 0.8330 0.8330
6.015000 0.8330 0.8330 0.8330 0.8340 0.8350
6.038790 0.8360 0.8360 0.8360 0.8360 0.8360
6.063000 0.8360 0.8360 0.8350 0.8340 0.8330
6.086790 0.8320 0.8320 0.8320 0.8320 0.8330
6.111000 0.8330 0.8330 0.8340 0.8340 0.8340
6.134790 0.8330 0.8330 0.8320 0.8320 0.8320
6.158000 0.8330 0.8330 0.8330 0.8330 0.8340
6.181790 0.8340 0.8340 0.8340 0.8340 0.8330
6.206000 0.8330 0.8330 0.8330 0.8330 0.8320
6.229790 0.8320 0.8300 0.8300 0.8300 0.8290
6.253000 0.8290 0.8300 0.8320 0.8330 0.8330
6.276790 0.8330 0.8330 0.8320 0.8300 0.8300
6.301000 0.8290 0.8290 0.8290 0.8290 0.8290
6.324790 0.8290 0.8300 0.8320 0.8330 0.8340
6.348000 0.8340 0.8350 0.8350 0.8360 0.8380
6.371790 0.8380 0.8380 0.8380 0.8380 0.8380
6.396000 0.8390 0.8390 0.8400 0.8410 0.8420
6.419790 0.8420 0.8410 0.8410 0.8390 0.8380
6.444000 0.8360 0.8350 0.8350 0.8350 0.8360
6.467790 0.8390 0.8400 0.8410 0.8410 0.8420
6.491000 0.8410 0.8400 0.8380 0.8360 0.8340
6.514790 0.8320 0.8320 0.8300 0.8290 0.8280
6.539000 0.8280 0.8280 0.8280 0.8280 0.8280
6.562790 0.8280 0.8270 0.8260 0.8210 0.8170
6.586000 0.8140 0.8130 0.8110 0.8100 0.8090
6.609790 0.8090 0.8090 0.8090 0.8070 0.8040
6.634000 0.8000 0.7860 0.7800 0.7780 0.7760
6.657790 0.7750 0.7720 0.7720 0.7710 0.7670
6.681000 0.7640 0.7610 0.7600 0.7590 0.7580
6.704790 0.7540 0.7520 0.7510 0.7500 0.7410
6.729000 0.7390 0.7350 0.7330 0.7290 0.7230
6.752790 0.7210 0.7200 0.7190 0.7190 0.7170
6.776000 0.7160 0.7160 0.7160 0.7160 0.7150
6.799790 0.7140 0.7130 0.7130 0.7110 0.7110
6.824000 0.7090 0.7070 0.7020 0.7020 0.7020
6.847790 0.7010 0.7000 0.6980 0.6890 0.6720
6.872000 0.6510 0.6420 0.6410 0.6390 0.6350
6.895790 0.6350 0.6410 0.6440 0.6480 0.6510
6.919000 0.6520 0.6530 0.6530 0.6530 0.6540
6.942790 0.6540 0.6540 0.6550 0.6550 0.6550
6.967000 0.6550 0.6550 0.6540 0.6530 0.6500
6.990790 0.6440 0.6400 0.6340 0.6260 0.6190
7.014000 0.6080 0.6050 0.6010 0.5900 0.5850
7.037790 0.5780 0.5600 0.5500 0.5190 0.5000
7.062000 0.4780 0.4650 0.4570 0.4410 0.4320
7.085790 0.4220 0.4110 0.4020 0.4000 0.3980
7.109000 0.3970 0.3980 0.4000 0.4030 0.4070
7.132790 0.4210 0.4320 0.4400 0.4450 0.4450
7.157000 0.4380 0.3980 0.3900 0.3850 0.3850
7.180790 0.4100 0.4330 0.4420 0.4480 0.4510
7.205000 0.4510 0.4440 0.4380 0.4330 0.4300
7.228790 0.4280 0.4270 0.4260 0.4250 0.4250
7.252000 0.4320 0.4450 0.4570 0.4690 0.4750
7.275790 0.4880 0.5010 0.5050 0.5160 0.5280
7.300000 0.5390 0.5510 0.5580 0.5660 0.5790
7.323790 0.5890 0.6010 0.6030 0.6140 0.6210
7.347000 0.6300 0.6350 0.6420 0.6470 0.6510
7.370790 0.6530 0.6590 0.6630 0.6650 0.6660
7.395000 0.6710 0.6750 0.6800 0.6840 0.6850
7.418790 0.6880 0.6890 0.6910 0.6920 0.6950
7.442000 0.6960 0.7000 0.7020 0.7020 0.7030
7.465790 0.7030 0.7030 0.7030 0.7030 0.7030
7.490000 0.7050 0.7050 0.7090 0.7110 0.7140
7.513790 0.7170 0.7190 0.7190 0.7200 0.7220
7.537000 0.7230 0.7260 0.7260 0.7270 0.7270
7.560790 0.7270 0.7270 0.7270 0.7270 0.7270
7.585000 0.7270 0.7280 0.7280 0.7290 0.7290
7.608790 0.7300 0.7300 0.7300 0.7300 0.7300
7.633000 0.7320 0.7320 0.7320 0.7300 0.7300
7.656790 0.7300 0.7300 0.7300 0.7300 0.7300
7.680000 0.7300 0.7300 0.7300 0.7300 0.7300
7.703790 0.7300 0.7290 0.7280 0.7260 0.7250
7.728000 0.7230 0.7230 0.7220 0.7220 0.7220
7.751790 0.7210 0.7190 0.7170 0.7170 0.7160
7.775000 0.7150 0.7140 0.7140 0.7130 0.7100
7.798790 0.7070 0.7020 0.7010 0.6920 0.6900
7.823000 0.6890 0.6880 0.6850 0.6800 0.6720
7.846790 0.6700 0.6670 0.6510 0.6500 0.6450
7.870000 0.6410 0.6350 0.6270 0.6200 0.6150
7.893790 0.6090 0.6010 0.5890 0.5820 0.5700
7.918000 0.5600 0.5510 0.5420 0.5380 0.5280
7.941790 0.5200 0.5100 0.5020 0.5000 0.4920
7.966000 0.4890 0.4850 0.4800 0.4790 0.4760
7.989790 0.4730 0.4710 0.4630 0.4590 0.4530
8.013000 0.4480 0.4470 0.4480 0.4550 0.4600
8.036790 0.4630 0.4690 0.4770 0.4790 0.4800
8.061000 0.4800 0.4630 0.4540 0.4640 0.4750
8.084790 0.4850 0.4940 0.4970 0.4980 0.5010
8.108000 0.5010 0.4960 0.4920 0.4900 0.4840
8.131790 0.4770 0.4750 0.4720 0.4700 0.4690
8.156000 0.4690 0.4700 0.4710 0.4730 0.4780
8.179790 0.4830 0.4890 0.4910 0.4920 0.5010
8.203000 0.5080 0.5160 0.5230 0.5320 0.5380
8.226790 0.5500 0.5580 0.5610 0.5690 0.5770
8.251000 0.5910 0.6020 0.6150 0.6190 0.6210
8.274790 0.6270 0.6320 0.6380 0.6410 0.6500
8.298000 0.6520 0.6550 0.6630 0.6660 0.6690
8.321790 0.6720 0.6760 0.6780 0.6820 0.6880
8.346000 0.6900 0.6920 0.6950 0.6970 0.7010
8.369790 0.7020 0.7030 0.7030 0.7040 0.7100
8.394000 0.7110 0.7140 0.7190 0.7200 0.7210
8.417790 0.7230 0.7260 0.7280 0.7300 0.7320
8.441000 0.7340 0.7350 0.7360 0.7380 0.7390
8.464790 0.7390 0.7400 0.7410 0.7440 0.7450
8.489000 0.7450 0.7480 0.7480 0.7510 0.7520
8.512790 0.7540 0.7540 0.7540 0.7550 0.7570
8.536000 0.7570 0.7580 0.7580 0.7590 0.7600
8.559790 0.7610 0.7630 0.7630 0.7630 0.7640
8.584000 0.7640 0.7630 0.7630 0.7630 0.7630
8.607790 0.7630 0.7630 0.7630 0.7630 0.7630
8.631000 0.7630 0.7630 0.7630 0.7630 0.7630
8.654790 0.7630 0.7630 0.7640 0.7640 0.7630
8.679000 0.7630 0.7610 0.7600 0.7600 0.7600
8.702790 0.7590 0.7580 0.7570 0.7570 0.7550
8.727000 0.7550 0.7550 0.7540 0.7540 0.7530
8.750790 0.7500 0.7480 0.7460 0.7460 0.7450
8.774000 0.7440 0.7420 0.7420 0.7410 0.7400
8.797790 0.7380 0.7350 0.7330 0.7320 0.7290
8.822000 0.7280 0.7270 0.7220 0.7190 0.7160
8.845790 0.7140 0.7110 0.7080 0.7030 0.7010
8.869000 0.7000 0.6940 0.6900 0.6880 0.6840
8.892790 0.6820 0.6800 0.6760 0.6750 0.6720
8.917000 0.6700 0.6600 0.6540 0.6510 0.6420
8.940790 0.6380 0.6330 0.6280 0.6210 0.6150
8.964000 0.6040 0.6010 0.5920 0.5880 0.5820
8.987790 0.5700 0.5630 0.5470 0.5410 0.5320
9.012000 0.5190 0.5050 0.5020 0.4860 0.4790
9.035790 0.4720 0.4670 0.4550 0.4500 0.4390
9.059000 0.4330 0.4270 0.4210 0.4160 0.4110
9.082790 0.4050 0.4010 0.4000 0.3960 0.3940
9.107000 0.3900 0.3880 0.3850 0.3830 0.3800
9.130790 0.3790 0.3780 0.3760 0.3720 0.3700
9.155000 0.3640 0.3580 0.3510 0.3390 0.3140
9.178790 0.3000 0.2760 0.2610 0.2520 0.2450
9.202000 0.2400 0.2340 0.2270 0.2170 0.2090
9.225790 0.2010 0.2000 0.1890 0.1830 0.1670
9.250000 0.1610 0.1570 0.1520 0.1500 0.1440
9.273790 0.1410 0.1360 0.1280 0.1220 0.1190
9.297000 0.1170 0.1140 0.1130 0.1100 0.1100
9.320790 0.1100 0.1090 0.1090 0.1090 0.1100
9.345000 0.1110 0.1130 0.1140 0.1160 0.1170
9.368790 0.1170 0.1130 0.1050 0.1010 0.0970
9.392000 0.0950 0.0940 0.0950 0.1000 0.1020
9.415790 0.1040 0.1080 0.1110 0.1140 0.1150
9.440000 0.1160 0.1170 0.1150 0.1100 0.1010
9.463790 0.1000 0.0980 0.0980 0.0980 0.1000
9.488000 0.1000 0.1010 0.1020 0.1020 0.1020
9.511790 0.1020 0.1010 0.1010 0.1020 0.1020
9.535000 0.1030 0.1030 0.1050 0.1070 0.1080
9.558790 0.1090 0.1100 0.1130 0.1130 0.1140
9.583000 0.1140 0.1160 0.1170 0.1210 0.1270
9.606790 0.1340 0.1480 0.1500 0.1520 0.1520
9.630000 0.1580 0.1640 0.1660 0.1670 0.1700
9.653790 0.1710 0.1750 0.1920 0.2080 0.2260
9.678000 0.2400 0.2510 0.2580 0.2640 0.2770
9.701790 0.2880 0.3010 0.3020 0.3040 0.3080
9.725000 0.3020 0.2800 0.2710 0.2670 0.2650
9.748790 0.2710 0.3010 0.3210 0.3300 0.3390
9.773000 0.3420 0.3500 0.3540 0.3610 0.3660
9.796790 0.3690 0.3720 0.3780 0.3800 0.3830
9.820000 0.3860 0.3880 0.3890 0.3900 0.3920
9.843790 0.3940 0.4010 0.4020 0.4050 0.4110
9.868000 0.4150 0.4210 0.4250 0.4280 0.4330
9.891790 0.4410 0.4500 0.4530 0.4600 0.4690
9.916000 0.4800 0.4860 0.5000 0.5010 0.5040
9.939790 0.5110 0.5170 0.5270 0.5330 0.5400
9.963000 0.5500 0.5530 0.5590 0.5650 0.5730
9.986790 0.5820 0.5890 0.5950 0.6020 0.6080
10.011000 0.6140 0.6200 0.6260 0.6330 0.6390
10.034790 0.6510 0.6540 0.6590 0.6640 0.6670
10.058000 0.6710 0.6760 0.6820 0.6850 0.6920
10.081790 0.6950 0.6980 0.7010 0.7030 0.7070
10.106000 0.7130 0.7160 0.7200 0.7210 0.7280
10.129790 0.7330 0.7350 0.7380 0.7390 0.7410
10.153000 0.7420 0.7450 0.7470 0.7500 0.7530
10.176790 0.7540 0.7580 0.7600 0.7630 0.7640
10.201000 0.7650 0.7690 0.7710 0.7720 0.7730
10.224790 0.7750 0.7770 0.7790 0.7800 0.7820
10.249000 0.7820 0.7830 0.7840 0.7850 0.7850
10.272790 0.7850 0.7850 0.7880 0.7890 0.7900
10.296000 0.7910 0.7910 0.7920 0.7950 0.7950
10.319790 0.7960 0.7960 0.7960 0.7980 0.8010
10.344000 0.8010 0.8010 0.8020 0.8030 0.8030
10.367790 0.8030 0.8040 0.8040 0.8040 0.8040
10.391000 0.8040 0.8040 0.8040 0.8050 0.8050
10.414790 0.8080 0.8100 0.8100 0.8100 0.8100
10.439000 0.8100 0.8100 0.8100 0.8100 0.8110
10.462790 0.8110 0.8110 0.8110 0.8130 0.8140
10.486000 0.8140 0.8140 0.8150 0.8150 0.8160
10.509790 0.8160 0.8160 0.8160 0.8160 0.8160
10.534000 0.8160 0.8160 0.8160 0.8170 0.8170
10.557790 0.8190 0.8190 0.8190 0.8190 0.8190
10.581000 0.8190 0.8170 0.8170 0.8170 0.8160
10.604790 0.8150 0.8140 0.8140 0.8140 0.8130
10.629000 0.8130 0.8110 0.8100 0.8100 0.8090
10.652790 0.8090 0.8090 0.8090 0.8090 0.8090
10.677000 0.8090 0.8090 0.8090 0.8090 0.8090
10.700790 0.8090 0.8090 0.8090 0.8090 0.8090
10.724000 0.8090 0.8090 0.8090 0.8090 0.8090
10.747790 0.8090 0.8080 0.8070 0.8070 0.8050
10.772000 0.8050 0.8050 0.8050 0.8050 0.8050
10.795790 0.8050 0.8050 0.8040 0.8040 0.8030
10.819000 0.8030 0.8020 0.8020 0.8020 0.8020
10.842790 0.8020 0.8020 0.8010 0.8000 0.7970
10.867000 0.7960 0.7940 0.7920 0.7920 0.7910
10.890790 0.7910 0.7890 0.7860 0.7830 0.7820
10.914000 0.7790 0.7760 0.7730 0.7710 0.7700
10.937790 0.7650 0.7600 0.7540 0.7530 0.7520
10.962000 0.7510 0.7500 0.7440 0.7380 0.7350
10.985790 0.7300 0.7300 0.7250 0.7230 0.7220
11.010000 0.7110 0.7090 0.7040 0.7000 0.6980
11.033790 0.6910 0.6880 0.6840 0.6790 0.6770
11.057000 0.6750 0.6710 0.6670 0.6590 0.6530
11.080790 0.6510 0.6470 0.6440 0.6410 0.6390
11.105000 0.6350 0.6320 0.6280 0.6260 0.6220
11.128790 0.6210 0.6190 0.6170 0.6160 0.6140
11.152000 0.6110 0.6100 0.6090 0.6080 0.6040
11.175790 0.6040 0.6030 0.6030 0.6030 0.6030
11.200000 0.6030 0.6030 0.6020 0.6010 0.6010
11.223790 0.5970 0.5880 0.5760 0.5720 0.5710
11.247000 0.5720 0.5750 0.5860 0.5970 0.6050
11.270790 0.6050 0.6100 0.6160 0.6190 0.6220
11.295000 0.6230 0.6270 0.6270 0.6280 0.6280
11.318790 0.6280 0.6280 0.6270 0.6250 0.6210
11.342000 0.6200 0.6200 0.6160 0.6160 0.6200
11.365790 0.6200 0.6210 0.6210 0.6160 0.6130
11.390000 0.6130 0.6020 0.5800 0.5800 0.6010
11.413790 0.6190 0.6210 0.6280 0.6330 0.6360
11.438000 0.6400 0.6410 0.6410 0.6410 0.6410
11.461790 0.6400 0.6390 0.6380 0.6360 0.6350
11.485000 0.6340 0.6330 0.6320 0.6320 0.6320
11.508790 0.6290 0.6280 0.6280 0.6280 0.6280
11.533000 0.6280 0.6280 0.6280 0.6290 0.6290
11.556790 0.6300 0.6330 0.6340 0.6350 0.6360
11.580000 0.6390 0.6400 0.6420 0.6450 0.6480
11.603790 0.6520 0.6530 0.6580 0.6610 0.6640
11.628000 0.6660 0.6670 0.6710 0.6780 0.6830
11.651790 0.6860 0.6900 0.6940 0.7000 0.7010
11.675000 0.7020 0.7040 0.7110 0.7150 0.7170
11.698790 0.7210 0.7230 0.7290 0.7320 0.7350
11.723000 0.7400 0.7420 0.7450 0.7500 0.7520
11.746790 0.7530 0.7570 0.7580 0.7630 0.7640
11.771000 0.7660 0.7690 0.7700 0.7700 0.7710
11.794790 0.7720 0.7730 0.7750 0.7770 0.7780
11.818000 0.7820 0.7830 0.7830 0.7840 0.7850
11.841790 0.7880 0.7890 0.7900 0.7920 0.7960
11.866000 0.7980 0.8010 0.8020 0.8020 0.8020
11.889790 0.8020 0.8020 0.8030 0.8030 0.8030
11.913000 0.8040 0.8050 0.8080 0.8090 0.8100
11.936790 0.8100 0.8100 0.8100 0.8100 0.8100
11.961000 0.8090 0.8090 0.8090 0.8090 0.8100
11.984790 0.8100 0.8100 0.8100 0.8110 0.8110
12.008000 0.8110 0.8110 0.8110 0.8110 0.8110
12.031790 0.8110 0.8110 0.8110 0.8110 0.8130
12.056000 0.8130 0.8130 0.8130 0.8130 0.8130
12.079790 0.8130 0.8140 0.8140 0.8140 0.8150
12.103000 0.8150 0.8150 0.8160 0.8150 0.8150
12.126790 0.8150 0.8140 0.8140 0.8140 0.8140
12.151000 0.8140 0.8140 0.8140 0.8150 0.8150
12.174790 0.8150 0.8150 0.8150 0.8160 0.8160
12.199000 0.8160 0.8160 0.8160 0.8160 0.8160
12.222790 0.8160 0.8160 0.8160 0.8160 0.8160
12.246000 0.8160 0.8160 0.8160 0.8150 0.8150
12.269790 0.8150 0.8150 0.8140 0.8140 0.8130
12.294000 0.8130 0.8130 0.8130 0.8110 0.8110
12.317790 0.8100 0.8090 0.8090 0.8080 0.8080
12.341000 0.8080 0.8080 0.8080 0.8090 0.8090
12.364790 0.8090 0.8090 0.8090 0.8090 0.8090
12.389000 0.8090 0.8090 0.8090 0.8090 0.8090
12.412790 0.8090 0.8090 0.8090 0.8090 0.8100
12.436000 0.8100 0.8100 0.8100 0.8090 0.8090
12.459790 0.8090 0.8090 0.8080 0.8080 0.8080
12.484000 0.8070 0.8070 0.8050 0.8050 0.8040
12.507790 0.8040 0.8040 0.8040 0.8040 0.8040
12.532000 0.8040 0.8040 0.8050 0.8050 0.8070
12.555790 0.8070 0.8080 0.8080 0.8080 0.8080
12.579000 0.8080 0.8090 0.8090 0.8090 0.8090
12.602790 0.8090 0.8100 0.8100 0.8100 0.8100
12.627000 0.8100 0.8100 0.8090 0.8090 0.8090
12.650790 0.8090 0.8090 0.8090 0.8100 0.8100
12.674000 0.8100 0.8100 0.8110 0.8110 0.8110
12.697790 0.8110 0.8110 0.8100 0.8100 0.8100
12.722000 0.8100 0.8100 0.8100 0.8100 0.8100
12.745790 0.8100 0.8100 0.8100 0.8100 0.8110
12.769000 0.8110 0.8110 0.8110 0.8110 0.8110
12.792790 0.8130 0.8140 0.8140 0.8130 0.8110
12.817000 0.8110 0.8100 0.8100 0.8100 0.8110
12.840790 0.8110 0.8130 0.8130 0.8140 0.8140
12.864000 0.8140 0.8140 0.8130 0.8110 0.8110
12.887790 0.8110 0.8110 0.8110 0.8110 0.8130
12.912000 0.8130 0.8140 0.8150 0.8150 0.8150
12.935790 0.8150 0.8150 0.8150 0.8150 0.8160
12.960000 0.8160 0.8170 0.8170 0.8170 0.8170
12.983790 0.8170 0.8170 0.8170 0.8170 0.8170
13.007000 0.8170 0.8190 0.8190 0.8190 0.8190
13.030790 0.8190 0.8190 0.8200 0.8200 0.8200
13.055000 0.8200 0.8200 0.8200 0.8200 0.8210
13.078790 0.8210 0.8210 0.8210 0.8210 0.8210
13.102000 0.8210 0.8210 0.8210 0.8210 0.8210
13.125790 0.8210 0.8210 0.8210 0.8210 0.8210
13.150000 0.8210 0.8210 0.8200 0.8200 0.8200
13.173790 0.8200 0.8200 0.8200 0.8200 0.8200
13.197000 0.8200 0.8200 0.8200 0.8200 0.8200
13.220790 0.8200 0.8200 0.8200 0.8210 0.8210
13.245000 0.8210 0.8210 0.8210 0.8210 0.8210
13.268790 0.8200 0.8170 0.8170 0.8160 0.8160
13.293000 0.8160 0.8160 0.8160 0.8160 0.8160
13.316790 0.8160 0.8160 0.8160 0.8160 0.8160
13.340000 0.8160 0.8160 0.8160 0.8160 0.8160
13.363790 0.8160 0.8160 0.8160 0.8150 0.8150
13.388000 0.8150 0.8150 0.8140 0.8140 0.8140
13.411790 0.8140 0.8140 0.8140 0.8140 0.8130
13.435000 0.8110 0.8110 0.8100 0.8100 0.8100
13.458790 0.8100 0.8100 0.8100 0.8100 0.8100
13.483000 0.8100 0.8100 0.8100 0.8100 0.8100
13.506790 0.8090 0.8080 0.8080 0.8090 0.8100
13.530000 0.8100 0.8100 0.8090 0.8090 0.8090
13.553790 0.8090 0.8090 0.8090 0.8090 0.8080
13.578000 0.8080 0.8070 0.8050 0.8040 0.8040
13.601790 0.8040 0.8050 0.8070 0.8070 0.8070
13.625000 0.8070 0.8050 0.8050 0.8050 0.8040
13.648790 0.8030 0.8030 0.8050 0.8070 0.8070
13.673000 0.8050 0.8050 0.8040 0.8040 0.8050
13.696790 0.8050 0.8050 0.8050 0.8050 0.8050
13.721000 0.8040 0.8040 0.8040 0.8030 0.8030
13.744790 0.8030 0.8030 0.8030 0.8030 0.8030
13.768000 0.8020 0.8020 0.8020 0.8020 0.8020
13.791790 0.8020 0.8020 0.8020 0.8020 0.8020
13.816000 0.8020 0.8020 0.8020 0.8020 0.8020
13.839790 0.8020 0.8020 0.8020 0.8020 0.8020
13.863000 0.8020 0.8020 0.8020 0.8020 0.8010
13.886790 0.8010 0.8010 0.8010 0.8010 0.8000
13.911000 0.7980 0.7970 0.7960 0.7960 0.7950
13.934790 0.7950 0.7940 0.7940 0.7940 0.7920
13.958000 0.7920 0.7910 0.7910 0.7910 0.7910
13.981790 0.7910 0.7910 0.7910 0.7910 0.7910
14.006000 0.7900 0.7900 0.7880 0.7860 0.7840
14.029790 0.7830 0.7830 0.7820 0.7820 0.7820
14.054000 0.7820 0.7820 0.7820 0.7820 0.7820
14.077790 0.7820 0.7820 0.7820 0.7820 0.7820
14.101000 0.7820 0.7820 0.7820 0.7800 0.7800
14.124790 0.7800 0.7800 0.7800 0.7790 0.7790
14.149000 0.7790 0.7790 0.7790 0.7780 0.7770
14.172790 0.7770 0.7770 0.7770 0.7770 0.7770
14.196000 0.7770 0.7770 0.7760 0.7750 0.7750
14.219790 0.7750 0.7750 0.7750 0.7730 0.7730
14.244000 0.7730 0.7730 0.7730 0.7730 0.7720
14.267790 0.7720 0.7720 0.7720 0.7720 0.7710
14.291000 0.7710 0.7710 0.7700 0.7690 0.7670
14.314790 0.7670 0.7660 0.7660 0.7660 0.7660
14.339000 0.7660 0.7660 0.7660 0.7660 0.7670
14.362790 0.7670 0.7670 0.7660 0.7660 0.7650
14.386000 0.7650 0.7640 0.7640 0.7640 0.7630
14.409790 0.7630 0.7630 0.7610 0.7610 0.7610
14.434000 0.7600 0.7600 0.7600 0.7600 0.7600
14.457790 0.7600 0.7600 0.7600 0.7600 0.7590
14.482000 0.7590 0.7580 0.7540 0.7540 0.7540
14.505790 0.7540 0.7540 0.7540 0.7540 0.7540
14.529000 0.7530 0.7530 0.7530 0.7530 0.7530
14.552790 0.7530 0.7530 0.7530 0.7540 0.7540
14.577000 0.7540 0.7540 0.7540 0.7540 0.7530
14.600790 0.7530 0.7520 0.7520 0.7510 0.7510
14.624000 0.7510 0.7500 0.7500 0.7480 0.7470
14.647790 0.7460 0.7460 0.7460 0.7460 0.7460
14.672000 0.7460 0.7450 0.7450 0.7450 0.7450
14.695790 0.7440 0.7410 0.7400 0.7390 0.7380
14.719000 0.7360 0.7360 0.7360 0.7360 0.7360
14.742790 0.7360 0.7360 0.7360 0.7350 0.7340
14.767000 0.7330 0.7330 0.7330 0.7320 0.7320
14.790790 0.7320 0.7330 0.7330 0.7320 0.7300
14.815000 0.7300 0.7300 0.7300 0.7300 0.7300
14.838790 0.7300 0.7290 0.7290 0.7290 0.7280
14.862000 0.7280 0.7280 0.7280 0.7270 0.7260
14.885790 0.7250 0.7210 0.7200 0.7190 0.7170
14.910000 0.7170 0.7170 0.7170 0.7170 0.7160
14.933790 0.7150 0.7150 0.7140 0.7140 0.7140
14.957000 0.7140 0.7140 0.7140 0.7140 0.7140
14.980790 0.7140 0.7140 0.7140 0.7140 0.7140
15.005000 0.7150 0.7150 0.7140
##END=
