##TITLE=ETHANOL
##JCAMP-DX=4.24
##DATA TYPE=INFRARED SPECTRUM
##CLASS=COBLENTZ
##ORIGIN=DOW CHEMICAL COMPANY
##OWNER=COBLENTZ SOCIETY
Collection (C) 2007 copyright by the U.S. Secretary of Commerce
on behalf of the United States of America. All rights reserved.
##DATE=1964
##CAS REGISTRY NO=64-17-5
##MOLFORM=C2H6O
##SOURCE REFERENCE=COBLENTZ NO. 8789
##$NIST SOURCE=COBLENTZ
##$NIST IMAGE=cob-r8789
##SPECTROMETER/DATA SYSTEM=DOW KBr FOREPRISM-GRATING
##INSTRUMENT PARAMETERS=GRATING CHANGED AT 5.0, 7.5, 15.0 MICRON
##STATE=GAS (30 mmHg, N2 ADDED, TOTAL PRESSURE 600 mmHg)
##PATH LENGTH=5 CM
##SAMPLING PROCEDURE=TRANSMISSION
##RESOLUTION=2
##DATA PROCESSING=DIGITIZED BY NIST FROM HARD COPY (FROM TWO SEGMENTS)
##XUNITS=1/CM
##YUNITS=TRANSMITTANCE
##XFACTOR=1.000000
##YFACTOR=1
##DELTAX=0.937500
##FIRSTX=461.563
##LASTX=3807.5
##FIRSTY=0.966
##MAXX=3807.5
##MINX=461.563
##MAXY=1.024
##MINY=0.142008
##NPOINTS=3570
##XYDATA=(X++(Y..Y))
461.563000 0.9660 0.9660 0.9660 0.9660 0.9660
466.250502 0.9680 0.9680 0.9680 0.9680 0.9680
470.938003 0.9680 0.9690 0.9690 0.9690 0.9690
475.625505 0.9690 0.9690 0.9690 0.9700 0.9700
480.313007 0.9700 0.9700 0.9700 0.9700 0.9700
485.000509 0.9720 0.9720 0.9720 0.9720 0.9720
489.688010 0.9720 0.9720 0.9720 0.9720 0.9720
494.375512 0.9720 0.9720 0.9720 0.9720 0.9720
499.063014 0.9720 0.9700 0.9700 0.9700 0.9700
503.750516 0.9700 0.9700 0.9700 0.9700 0.9700
508.438017 0.9700 0.9700 0.9700 0.9700 0.9700
513.125519 0.9700 0.9700 0.9690 0.9690 0.9690
517.813021 0.9690 0.9690 0.9690 0.9690 0.9690
522.500523 0.9690 0.9690 0.9690 0.9690 0.9690
527.188024 0.9690 0.9690 0.9690 0.9690 0.9690
531.875526 0.9690 0.9690 0.9690 0.9690 0.9690
536.563028 0.9700 0.9700 0.9700 0.9700 0.9700
541.250530 0.9700 0.9700 0.9700 0.9700 0.9700
545.938031 0.9700 0.9700 0.9700 0.9700 0.9700
550.625533 0.9700 0.9720 0.9720 0.9730 0.9730
555.313035 0.9730 0.9730 0.9750 0.9750 0.9760
560.000537 0.9760 0.9780 0.9780 0.9790 0.9790
564.688038 0.9810 0.9810 0.9810 0.9810 0.9820
569.375540 0.9820 0.9820 0.9820 0.9850 0.9850
574.063042 0.9850 0.9850 0.9860 0.9860 0.9860
578.750544 0.9880 0.9880 0.9880 0.9880 0.9890
583.438045 0.9890 0.9890 0.9880 0.9890 0.9890
588.125547 0.9910 0.9910 0.9910 0.9920 0.9920
592.813049 0.9920 0.9920 0.9920 0.9920 0.9940
597.500551 0.9940 0.9940 0.9940 0.9940 0.9940
602.188052 0.9940 0.9950 0.9950 0.9950 0.9950
606.875554 0.9950 0.9950 0.9950 0.9950 0.9970
611.563056 0.9970 0.9970 0.9970 0.9970 0.9980
616.250557 0.9980 0.9980 0.9980 1.0000 1.0000
620.938059 1.0000 1.0000 1.0000 1.0010 1.0010
625.625561 1.0010 1.0010 1.0010 1.0010 1.0020
630.313063 1.0020 1.0020 1.0020 1.0020 1.0040
635.000564 1.0040 1.0040 1.0040 1.0040 1.0050
639.688066 1.0050 1.0050 1.0050 1.0050 1.0050
644.375568 1.0070 1.0070 1.0070 1.0070 1.0070
649.063070 1.0070 1.0080 1.0080 1.0080 1.0080
653.750571 1.0080 1.0080 1.0070 1.0070 1.0070
658.438073 1.0070 1.0070 1.0050 1.0070 1.0070
663.125575 1.0070 1.0080 1.0080 1.0080 1.0080
667.813077 1.0100 1.0110 1.0130 1.0130 1.0100
672.500578 1.0070 1.0040 1.0010 1.0000 0.9980
677.188080 0.9950 0.9950 1.0010 1.0020 1.0040
681.875582 1.0050 1.0070 1.0080 1.0080 1.0080
686.563084 1.0080 1.0080 1.0080 1.0080 1.0080
691.250585 1.0080 1.0080 1.0080 1.0080 1.0080
695.938087 1.0080 1.0080 1.0100 1.0110 1.0110
700.625589 1.0110 1.0110 1.0130 1.0130 1.0130
705.313091 1.0130 1.0130 1.0130 1.0130 1.0130
710.000592 1.0130 1.0130 1.0130 1.0130 1.0140
714.688094 1.0140 1.0140 1.0130 1.0130 1.0130
719.375596 1.0140 1.0140 1.0150 1.0150 1.0170
724.063098 1.0200 1.0230 1.0240 1.0200 1.0140
728.750599 1.0140 1.0130 1.0130 1.0130 1.0110
733.438101 1.0110 1.0100 1.0080 1.0080 1.0080
738.125603 1.0080 1.0080 1.0070 1.0070 1.0070
742.813105 1.0070 1.0070 1.0070 1.0070 1.0070
747.500606 1.0070 1.0070 1.0070 1.0080 1.0080
752.188108 1.0070 1.0070 1.0070 1.0050 1.0050
756.875610 1.0050 1.0070 1.0070 1.0070 1.0050
761.563111 1.0050 1.0050 1.0050 1.0050 1.0050
766.250613 1.0050 1.0050 1.0040 1.0040 1.0020
770.938115 1.0020 1.0010 1.0010 1.0000 1.0000
775.625617 1.0000 0.9980 0.9980 0.9970 0.9970
780.313118 0.9950 0.9940 0.9940 0.9940 0.9920
785.000620 0.9920 0.9920 0.9910 0.9910 0.9910
789.688122 0.9890 0.9890 0.9890 0.9880 0.9880
794.375624 0.9880 0.9860 0.9880 0.9860 0.9860
799.063125 0.9860 0.9850 0.9850 0.9850 0.9840
803.750627 0.9840 0.9840 0.9840 0.9840 0.9840
808.438129 0.9840 0.9850 0.9850 0.9850 0.9850
813.125631 0.9850 0.9850 0.9850 0.9850 0.9850
817.813132 0.9850 0.9850 0.9850 0.9860 0.9860
822.500634 0.9860 0.9860 0.9860 0.9860 0.9860
827.188136 0.9860 0.9860 0.9860 0.9860 0.9850
831.875638 0.9850 0.9850 0.9840 0.9840 0.9840
836.563139 0.9820 0.9820 0.9810 0.9810 0.9810
841.250641 0.9810 0.9790 0.9780 0.9780 0.9760
845.938143 0.9750 0.9720 0.9700 0.9660 0.9630
850.625645 0.9570 0.9520 0.9460 0.9400 0.9340
855.313146 0.9280 0.9220 0.9150 0.9050 0.8930
860.000648 0.8820 0.8700 0.8590 0.8530 0.8470
864.688150 0.8370 0.8290 0.8220 0.8130 0.8050
869.375652 0.8000 0.7960 0.7950 0.7950 0.7950
874.063153 0.7970 0.7990 0.8020 0.8060 0.8110
878.750655 0.8130 0.8130 0.7742 0.7451 0.7221
883.438157 0.7440 0.7650 0.7840 0.7960 0.7970
888.125659 0.7970 0.7960 0.7920 0.7392 0.7360
892.813160 0.7390 0.7650 0.7670 0.7680 0.7680
897.500662 0.7700 0.7710 0.7770 0.7830 0.7860
902.188164 0.7890 0.7920 0.7970 0.8050 0.8080
906.875665 0.8190 0.8320 0.8509 0.8610 0.8719
911.563167 0.8830 0.8950 0.9050 0.9140 0.9200
916.250669 0.9240 0.9360 0.9410 0.9460 0.9470
920.938171 0.9530 0.9630 0.9650 0.9680 0.9680
925.625672 0.9700 0.9750 0.9760 0.9780 0.9810
930.313174 0.9810 0.9820 0.9840 0.9850 0.9850
935.000676 0.9850 0.9860 0.9860 0.9860 0.9880
939.688178 0.9880 0.9890 0.9910 0.9910 0.9910
944.375679 0.9920 0.9920 0.9920 0.9940 0.9940
949.063181 0.9940 0.9940 0.9940 0.9940 0.9940
953.750683 0.9940 0.9920 0.9920 0.9920 0.9910
958.438185 0.9910 0.9910 0.9890 0.9890 0.9880
963.125686 0.9880 0.9880 0.9860 0.9860 0.9860
967.813188 0.9840 0.9820 0.9810 0.9790 0.9780
972.500690 0.9760 0.9750 0.9730 0.9700 0.9660
977.188192 0.9630 0.9620 0.9600 0.9590 0.9560
981.875693 0.9520 0.9440 0.9410 0.9370 0.9330
986.563195 0.9280 0.9240 0.9180 0.9110 0.9050
991.250697 0.8980 0.8920 0.8830 0.8760 0.8690
995.938199 0.8600 0.8510 0.8440 0.8350 0.8190
1000.625700 0.8030 0.7871 0.7731 0.7581 0.7421
1005.313202 0.7280 0.7130 0.7060 0.6990 0.6830
1010.000704 0.6670 0.6511 0.6351 0.6171 0.5981
1014.688206 0.5780 0.5620 0.5500 0.5460 0.5420
1019.375707 0.5360 0.5300 0.5270 0.5240 0.5180
1024.063209 0.5110 0.5040 0.4331 0.4090 0.3851
1028.750711 0.3481 0.4397 0.4111 0.4020 0.3930
1033.438212 0.3750 0.3510 0.3320 0.2871 0.2840
1038.125714 0.2740 0.2640 0.2570 0.2510 0.2440
1042.813216 0.2250 0.2200 0.2070 0.2000 0.1960
1047.500718 0.1940 0.1910 0.1880 0.1860 0.1840
1052.188219 0.1830 0.1810 0.1780 0.1780 0.1770
1056.875721 0.1740 0.1740 0.1650 0.1650 0.2127
1061.563223 0.2060 0.1940 0.1830 0.1710 0.1451
1066.250725 0.1420 0.1450 0.1619 0.1779 0.1959
1070.938226 0.2060 0.2040 0.1960 0.1910 0.1880
1075.625728 0.1880 0.1880 0.1900 0.1990 0.2040
1080.313230 0.2190 0.2340 0.2550 0.2570 0.2730
1085.000732 0.2800 0.2959 0.3149 0.3250 0.3310
1089.688233 0.3400 0.3600 0.4249 0.4560 0.4760
1094.375735 0.4920 0.5020 0.5100 0.5140 0.5210
1099.063237 0.5290 0.5340 0.5400 0.5520 0.5590
1103.750739 0.5650 0.5740 0.5840 0.5930 0.6039
1108.438240 0.6140 0.6250 0.6520 0.6740 0.6770
1113.125742 0.7059 0.7219 0.7349 0.7479 0.7599
1117.813244 0.7700 0.7810 0.7930 0.8050 0.8270
1122.500746 0.8400 0.8540 0.8570 0.8630 0.8700
1127.188247 0.8750 0.8790 0.8850 0.8900 0.8980
1131.875749 0.9010 0.9010 0.9080 0.9120 0.9170
1136.563251 0.9200 0.9210 0.9220 0.9250 0.9270
1141.250753 0.9280 0.9340 0.9370 0.9400 0.9400
1145.938254 0.9430 0.9460 0.9470 0.9490 0.9500
1150.625756 0.9520 0.9530 0.9540 0.9560 0.9560
1155.313258 0.9570 0.9570 0.9570 0.9590 0.9590
1160.000760 0.9590 0.9590 0.9590 0.9590 0.9590
1164.688261 0.9570 0.9570 0.9570 0.9560 0.9560
1169.375763 0.9540 0.9530 0.9530 0.9520 0.9520
1174.063265 0.9490 0.9490 0.9470 0.9410 0.9400
1178.750766 0.9360 0.9330 0.9300 0.9280 0.9270
1183.438268 0.9250 0.9250 0.9240 0.9220 0.9220
1188.125770 0.9200 0.9200 0.9180 0.9150 0.9120
1192.813272 0.9080 0.9050 0.9040 0.9010 0.8980
1197.500773 0.8950 0.8920 0.8890 0.8880 0.8860
1202.188275 0.8860 0.8790 0.8750 0.8720 0.8640
1206.875777 0.8570 0.8510 0.8480 0.8450 0.8410
1211.563279 0.8320 0.8220 0.8060 0.7970 0.7840
1216.250780 0.7770 0.7630 0.7520 0.7381 0.7221
1220.938282 0.7070 0.7030 0.6970 0.6870 0.6800
1225.625784 0.6700 0.6590 0.6560 0.6520 0.6490
1230.313286 0.6480 0.6480 0.6490 0.6550 0.6610
1235.000787 0.6650 0.6700 0.6770 0.6810 0.6999
1239.688289 0.7070 0.7100 0.6800 0.6480 0.6131
1244.375791 0.6459 0.6709 0.6720 0.6511 0.6391
1249.063293 0.6200 0.6170 0.6200 0.6250 0.6350
1253.750794 0.6360 0.6390 0.6400 0.6460 0.6510
1258.438296 0.6520 0.6580 0.6610 0.6680 0.6800
1263.125798 0.7019 0.7070 0.7130 0.7230 0.7339
1267.813300 0.7440 0.7550 0.7650 0.7770 0.7870
1272.500801 0.7990 0.8080 0.8150 0.8210 0.8280
1277.188303 0.8340 0.8370 0.8500 0.8530 0.8570
1281.875805 0.8610 0.8660 0.8720 0.8750 0.8750
1286.563307 0.8760 0.8790 0.8800 0.8830 0.8850
1291.250808 0.8880 0.8900 0.8930 0.8950 0.8950
1295.938310 0.8950 0.8960 0.8960 0.8980 0.8990
1300.625812 0.8990 0.8990 0.8990 0.8990 0.8990
1305.313314 0.8990 0.8990 0.8990 0.8990 0.8990
1310.000815 0.8990 0.8990 0.8990 0.8990 0.8990
1314.688317 0.8980 0.8980 0.8980 0.8960 0.8960
1319.375819 0.8960 0.8960 0.8960 0.8950 0.8950
1324.063320 0.8950 0.8930 0.8930 0.8930 0.8920
1328.750822 0.8920 0.8900 0.8900 0.8900 0.8890
1333.438324 0.8890 0.8850 0.8830 0.8820 0.8800
1338.125826 0.8790 0.8760 0.8760 0.8730 0.8700
1342.813327 0.8670 0.8640 0.8610 0.8590 0.8540
1347.500829 0.8510 0.8500 0.8470 0.8410 0.8340
1352.188331 0.8240 0.8150 0.8090 0.8020 0.7930
1356.875833 0.7790 0.7710 0.7581 0.7480 0.7341
1361.563334 0.7200 0.7070 0.7020 0.6940 0.6830
1366.250836 0.6700 0.6550 0.6391 0.6231 0.6041
1370.938338 0.5840 0.5590 0.5490 0.5430 0.5370
1375.625840 0.5260 0.5150 0.5011 0.4980 0.4910
1380.313341 0.4840 0.4780 0.4760 0.4780 0.4820
1385.000843 0.4860 0.4910 0.4950 0.5000 0.5080
1389.688345 0.5140 0.5200 0.5260 0.5330 0.4791
1394.375847 0.4501 0.4211 0.4061 0.3921 0.3641
1399.063348 0.5880 0.5850 0.5590 0.5500 0.5420
1403.750850 0.5310 0.5240 0.5150 0.5050 0.5020
1408.438352 0.5040 0.5110 0.5200 0.5210 0.5340
1413.125854 0.5579 0.5690 0.5839 0.5979 0.6169
1417.813355 0.6390 0.6510 0.6580 0.6720 0.7179
1422.500857 0.7260 0.7449 0.7570 0.7630 0.7710
1427.188359 0.7790 0.7870 0.7930 0.7990 0.8020
1431.875861 0.8050 0.8060 0.8080 0.8090 0.8110
1436.563362 0.8120 0.8120 0.8130 0.8150 0.8160
1441.250864 0.8160 0.8180 0.8180 0.8190 0.8190
1445.938366 0.8190 0.8180 0.8180 0.8180 0.8110
1450.625868 0.7811 0.7810 0.7860 0.7860 0.7870
1455.313369 0.7870 0.7890 0.8120 0.8270 0.8500
1460.000871 0.8540 0.8570 0.8600 0.8600 0.8610
1464.688373 0.8630 0.8660 0.8690 0.8700 0.8700
1469.375874 0.8700 0.8700 0.8720 0.8720 0.8720
1474.063376 0.8720 0.8720 0.8720 0.8730 0.8730
1478.750878 0.8750 0.8760 0.8760 0.8790 0.8830
1483.438380 0.8900 0.8920 0.8950 0.8960 0.8980
1488.125881 0.9020 0.9040 0.9050 0.9060 0.9090
1492.813383 0.9110 0.9140 0.9150 0.9170 0.9200
1497.500885 0.9250 0.9280 0.9310 0.9340 0.9340
1502.188387 0.9360 0.9370 0.9380 0.9400 0.9400
1506.875888 0.9410 0.9430 0.9440 0.9500 0.9520
1511.563390 0.9540 0.9560 0.9590 0.9590 0.9600
1516.250892 0.9620 0.9630 0.9650 0.9660 0.9680
1520.938394 0.9690 0.9700 0.9700 0.9720 0.9730
1525.625895 0.9750 0.9760 0.9780 0.9790 0.9810
1530.313397 0.9820 0.9820 0.9820 0.9840 0.9840
1535.000899 0.9840 0.9850 0.9850 0.9860 0.9860
1539.688401 0.9860 0.9880 0.9880 0.9880 0.9890
1544.375902 0.9890 0.9890 0.9910 0.9910 0.9920
1549.063404 0.9920 0.9940 0.9940 0.9940 0.9920
1553.750906 0.9920 0.9910 0.9910 0.9890 0.9890
1558.438408 0.9890 0.9890 0.9910 0.9910 0.9910
1563.125909 0.9920 0.9920 0.9940 0.9940 0.9940
1567.813411 0.9920 0.9910 0.9910 0.9910 0.9920
1572.500913 0.9920 0.9940 0.9940 0.9940 0.9920
1577.188415 0.9920 0.9890 0.9890 0.9890 0.9890
1581.875916 0.9910 0.9940 0.9940 0.9920 0.9920
1586.563418 0.9940 0.9950 0.9950 0.9950 0.9950
1591.250920 0.9910 0.9880 0.9880 0.9880 0.9890
1595.938422 0.9890 0.9910 0.9910 0.9910 0.9910
1600.625923 0.9910 0.9910 0.9910 0.9890 0.9890
1605.313425 0.9890 0.9890 0.9890 0.9890 0.9880
1610.000927 0.9880 0.9880 0.9910 0.9910 0.9890
1614.688428 0.9880 0.9880 0.9880 0.9880 0.9880
1619.375930 0.9880 0.9860 0.9860 0.9850 0.9860
1624.063432 0.9860 0.9880 0.9880 0.9880 0.9880
1628.750934 0.9880 0.9880 0.9890 0.9910 0.9910
1633.438435 0.9890 0.9890 0.9880 0.9860 0.9880
1638.125937 0.9880 0.9880 0.9880 0.9880 0.9880
1642.813439 0.9880 0.9880 0.9880 0.9880 0.9880
1647.500941 0.9880 0.9880 0.9880 0.9860 0.9860
1652.188442 0.9850 0.9840 0.9840 0.9840 0.9840
1656.875944 0.9840 0.9850 0.9860 0.9860 0.9860
1661.563446 0.9880 0.9880 0.9890 0.9890 0.9890
1666.250948 0.9890 0.9890 0.9890 0.9890 0.9890
1670.938449 0.9880 0.9880 0.9880 0.9880 0.9880
1675.625951 0.9880 0.9860 0.9860 0.9860 0.9850
1680.313453 0.9850 0.9850 0.9840 0.9840 0.9840
1685.000955 0.9840 0.9850 0.9850 0.9860 0.9880
1689.688456 0.9880 0.9880 0.9880 0.9880 0.9880
1694.375958 0.9880 0.9860 0.9860 0.9860 0.9860
1699.063460 0.9860 0.9860 0.9860 0.9860 0.9860
1703.750962 0.9860 0.9860 0.9860 0.9860 0.9860
1708.438463 0.9860 0.9850 0.9850 0.9850 0.9850
1713.125965 0.9840 0.9840 0.9820 0.9820 0.9820
1717.813467 0.9820 0.9820 0.9820 0.9820 0.9840
1722.500969 0.9840 0.9840 0.9840 0.9850 0.9850
1727.188470 0.9850 0.9850 0.9850 0.9850 0.9850
1731.875972 0.9850 0.9850 0.9850 0.9850 0.9840
1736.563474 0.9840 0.9840 0.9840 0.9840 0.9840
1741.250976 0.9840 0.9840 0.9840 0.9840 0.9840
1745.938477 0.9840 0.9840 0.9840 0.9840 0.9840
1750.625979 0.9840 0.9840 0.9840 0.9840 0.9840
1755.313481 0.9840 0.9840 0.9840 0.9840 0.9840
1760.000982 0.9840 0.9840 0.9840 0.9820 0.9820
1764.688484 0.9820 0.9820 0.9820 0.9820 0.9820
1769.375986 0.9820 0.9820 0.9820 0.9840 0.9840
1774.063488 0.9850 0.9850 0.9850 0.9850 0.9860
1778.750989 0.9880 0.9880 0.9880 0.9880 0.9880
1783.438491 0.9880 0.9880 0.9880 0.9880 0.9880
1788.125993 0.9880 0.9880 0.9880 0.9880 0.9880
1792.813495 0.9880 0.9880 0.9880 0.9890 0.9890
1797.500996 0.9890 0.9910 0.9910 0.9920 0.9940
1802.188498 0.9940 0.9940 0.9940 0.9940 0.9940
1806.876000 0.9940 0.9940 0.9940 0.9940 0.9940
1811.563502 0.9940 0.9940 0.9940 0.9940 0.9940
1816.251003 0.9940 0.9950 0.9950 0.9950 0.9950
1820.938505 0.9950 0.9950 0.9950 0.9970 0.9970
1825.626007 0.9970 0.9970 0.9970 0.9970 0.9950
1830.313509 0.9950 0.9950 0.9950 0.9950 0.9950
1835.001010 0.9950 0.9950 0.9950 0.9950 0.9950
1839.688512 0.9950 0.9950 0.9950 0.9950 0.9950
1844.376014 0.9950 0.9950 0.9950 0.9950 0.9950
1849.063516 0.9970 0.9970 0.9970 0.9970 0.9970
1853.751017 0.9970 0.9980 0.9970 0.9970 0.9970
1858.438519 0.9970 0.9970 0.9970 0.9970 0.9950
1863.126021 0.9950 0.9940 0.9940 0.9940 0.9940
1867.813523 0.9940 0.9940 0.9920 0.9920 0.9920
1872.501024 0.9920 0.9920 0.9920 0.9920 0.9920
1877.188526 0.9920 0.9910 0.9910 0.9910 0.9910
1881.876028 0.9910 0.9890 0.9890 0.9890 0.9890
1886.563529 0.9890 0.9890 0.9880 0.9880 0.9880
1891.251031 0.9880 0.9860 0.9860 0.9860 0.9860
1895.938533 0.9850 0.9850 0.9850 0.9840 0.9840
1900.626035 0.9840 0.9820 0.9820 0.9820 0.9810
1905.313536 0.9810 0.9810 0.9790 0.9790 0.9780
1910.001038 0.9780 0.9780 0.9760 0.9780 0.9760
1914.688540 0.9760 0.9750 0.9750 0.9730 0.9730
1919.376042 0.9730 0.9720 0.9730 0.9720 0.9720
1924.063543 0.9700 0.9700 0.9700 0.9700 0.9700
1928.751045 0.9700 0.9700 0.9700 0.9700 0.9690
1933.438547 0.9700 0.9700 0.9700 0.9720 0.9720
1938.126049 0.9730 0.9730 0.9730 0.9750 0.9750
1942.813550 0.9760 0.9760 0.9760 0.9780 0.9780
1947.501052 0.9790 0.9790 0.9810 0.9810 0.9820
1952.188554 0.9820 0.9840 0.9840 0.9850 0.9850
1956.876056 0.9860 0.9860 0.9880 0.9880 0.9880
1961.563557 0.9880 0.9890 0.9890 0.9890 0.9890
1966.251059 0.9910 0.9910 0.9910 0.9910 0.9920
1970.938561 0.9920 0.9920 0.9920 0.9940 0.9940
1975.626063 0.9940 0.9940 0.9950 0.9950 0.9950
1980.313564 0.9950 0.9970 0.9970 0.9970 0.9970
1985.001066 0.9980 0.9980 0.9980 0.9980 1.0000
1989.688568 1.0000 1.0000 1.0000 1.0000 1.0010
1994.376070 1.0010 1.0010 1.0010 1.0010 1.0010
1999.063571 1.0010 1.0010 1.0010 1.0010 1.0010
2003.751073 1.0010 1.0010 1.0010 1.0010 1.0010
2008.438575 1.0010 1.0010 1.0010 1.0010 1.0010
2013.126077 1.0010 1.0010 1.0010 1.0010 1.0010
2017.813578 1.0010 1.0010 1.0010 1.0010 1.0010
2022.501080 1.0010 1.0010 1.0010 1.0010 1.0010
2027.188582 1.0010 1.0010 1.0010 1.0010 1.0010
2031.876083 1.0010 1.0010 1.0010 1.0010 1.0010
2036.563585 1.0010 1.0010 1.0010 1.0010 1.0010
2041.251087 1.0010 1.0010 1.0010 1.0010 1.0010
2045.938589 1.0014 1.0019 1.0016 1.0011 1.0010
2050.626090 1.0010 1.0010 1.0010 1.0010 1.0010
2055.313592 1.0010 1.0010 1.0010 1.0010 1.0010
2060.001094 1.0010 1.0010 1.0010 1.0006 1.0001
2064.688596 1.0000 1.0000 1.0000 1.0000 1.0000
2069.376097 1.0000 1.0000 1.0000 1.0000 1.0000
2074.063599 0.9992 0.9982 0.9980 0.9980 0.9980
2078.751101 0.9980 0.9980 0.9980 0.9976 0.9971
2083.438603 0.9970 0.9970 0.9970 0.9970 0.9962
2088.126104 0.9952 0.9950 0.9950 0.9946 0.9941
2092.813606 0.9940 0.9940 0.9940 0.9940 0.9932
2097.501108 0.9922 0.9920 0.9920 0.9916 0.9911
2102.188610 0.9910 0.9910 0.9903 0.9893 0.9886
2106.876111 0.9881 0.9880 0.9880 0.9880 0.9880
2111.563613 0.9880 0.9880 0.9880 0.9880 0.9880
2116.251115 0.9880 0.9869 0.9854 0.9850 0.9850
2120.938617 0.9850 0.9850 0.9850 0.9850 0.9847
2125.626118 0.9842 0.9840 0.9840 0.9840 0.9840
2130.313620 0.9840 0.9840 0.9840 0.9840 0.9840
2135.001122 0.9840 0.9840 0.9840 0.9843 0.9848
2139.688624 0.9853 0.9858 0.9867 0.9876 0.9883
2144.376125 0.9888 0.9890 0.9890 0.9896 0.9906
2149.063627 0.9910 0.9910 0.9913 0.9918 0.9920
2153.751129 0.9920 0.9920 0.9920 0.9926 0.9936
2158.438631 0.9940 0.9940 0.9940 0.9940 0.9940
2163.126132 0.9940 0.9940 0.9940 0.9940 0.9940
2167.813634 0.9940 0.9940 0.9940 0.9940 0.9940
2172.501136 0.9940 0.9940 0.9940 0.9940 0.9940
2177.188637 0.9940 0.9940 0.9940 0.9940 0.9940
2181.876139 0.9940 0.9940 0.9940 0.9940 0.9940
2186.563641 0.9940 0.9940 0.9940 0.9940 0.9940
2191.251143 0.9940 0.9940 0.9940 0.9940 0.9940
2195.938644 0.9943 0.9948 0.9950 0.9950 0.9950
2200.626146 0.9950 0.9955 0.9965 0.9970 0.9970
2205.313648 0.9972 0.9978 0.9980 0.9980 0.9985
2210.001150 0.9995 1.0000 1.0000 1.0000 1.0000
2214.688651 1.0000 1.0000 1.0000 1.0000 1.0000
2219.376153 1.0000 1.0000 1.0000 1.0000 1.0000
2224.063655 1.0000 1.0000 1.0000 1.0000 1.0000
2228.751157 1.0000 1.0000 1.0000 1.0000 1.0000
2233.438658 1.0000 1.0000 1.0000 1.0000 0.9996
2238.126160 0.9986 0.9980 0.9980 0.9980 0.9980
2242.813662 0.9978 0.9973 0.9970 0.9970 0.9970
2247.501164 0.9970 0.9966 0.9956 0.9950 0.9950
2252.188665 0.9950 0.9950 0.9948 0.9943 0.9940
2256.876167 0.9940 0.9936 0.9926 0.9918 0.9913
2261.563669 0.9910 0.9910 0.9910 0.9910 0.9910
2266.251171 0.9910 0.9906 0.9896 0.9890 0.9890
2270.938672 0.9890 0.9890 0.9890 0.9890 0.9890
2275.626174 0.9890 0.9893 0.9903 0.9910 0.9910
2280.313676 0.9912 0.9917 0.9920 0.9920 0.9920
2285.001178 0.9920 0.9923 0.9933 0.9940 0.9940
2289.688679 0.9942 0.9947 0.9950 0.9950 0.9953
2294.376181 0.9963 0.9970 0.9970 0.9971 0.9976
2299.063683 0.9983 0.9993 1.0000 1.0000 1.0001
2303.751185 1.0006 1.0010 1.0010 1.0010 1.0010
2308.438686 1.0010 1.0010 1.0010 1.0010 1.0010
2313.126188 1.0010 1.0010 1.0010 1.0010 1.0010
2317.813690 1.0010 1.0010 1.0010 1.0010 1.0010
2322.501191 1.0010 1.0010 1.0010 1.0010 1.0010
2327.188693 1.0010 1.0010 1.0009 1.0004 1.0000
2331.876195 1.0000 1.0000 1.0000 0.9998 0.9988
2336.563697 0.9979 0.9974 0.9970 0.9970 0.9967
2341.251198 0.9952 0.9940 0.9940 0.9940 0.9940
2345.938700 0.9940 0.9940 0.9941 0.9946 0.9950
2350.626202 0.9950 0.9954 0.9979 1.0000 1.0000
2355.313704 1.0000 1.0000 1.0001 1.0006 1.0010
2360.001205 1.0010 1.0010 1.0010 1.0010 1.0010
2364.688707 1.0010 1.0010 1.0010 1.0010 1.0010
2369.376209 1.0010 1.0010 1.0010 1.0010 1.0010
2374.063711 1.0010 1.0005 1.0000 1.0000 1.0000
2378.751212 1.0000 1.0000 1.0000 0.9999 0.9989
2383.438714 0.9980 0.9980 0.9980 0.9975 0.9970
2388.126216 0.9970 0.9970 0.9970 0.9970 0.9970
2392.813718 0.9970 0.9970 0.9970 0.9970 0.9970
2397.501219 0.9970 0.9970 0.9970 0.9970 0.9970
2402.188721 0.9970 0.9960 0.9950 0.9950 0.9950
2406.876223 0.9950 0.9950 0.9950 0.9950 0.9945
2411.563725 0.9940 0.9940 0.9940 0.9930 0.9920
2416.251226 0.9920 0.9920 0.9920 0.9920 0.9920
2420.938728 0.9920 0.9920 0.9920 0.9920 0.9920
2425.626230 0.9920 0.9920 0.9920 0.9920 0.9930
2430.313732 0.9940 0.9940 0.9940 0.9940 0.9940
2435.001233 0.9940 0.9940 0.9940 0.9940 0.9940
2439.688735 0.9940 0.9940 0.9940 0.9945 0.9950
2444.376237 0.9950 0.9950 0.9950 0.9950 0.9950
2449.063739 0.9950 0.9950 0.9950 0.9950 0.9950
2453.751240 0.9950 0.9950 0.9950 0.9950 0.9959
2458.438742 0.9969 0.9970 0.9970 0.9970 0.9970
2463.126244 0.9970 0.9970 0.9970 0.9970 0.9970
2467.813745 0.9970 0.9970 0.9970 0.9970 0.9970
2472.501247 0.9974 0.9979 0.9980 0.9980 0.9980
2477.188749 0.9980 0.9980 0.9980 0.9980 0.9980
2481.876251 0.9980 0.9980 0.9980 0.9980 0.9980
2486.563752 0.9980 0.9980 0.9980 0.9980 0.9980
2491.251254 0.9980 0.9980 0.9988 0.9998 1.0000
2495.938756 1.0000 1.0000 1.0000 1.0000 1.0000
2500.626258 1.0000 1.0000 1.0000 1.0000 1.0000
2505.313759 1.0000 1.0004 1.0009 1.0010 1.0010
2510.001261 1.0010 1.0010 1.0010 1.0010 1.0010
2514.688763 1.0010 1.0010 1.0010 1.0010 1.0010
2519.376265 1.0010 1.0010 1.0010 1.0010 1.0010
2524.063766 1.0010 1.0010 1.0010 1.0010 1.0010
2528.751268 1.0010 1.0010 1.0010 1.0010 1.0010
2533.438770 1.0010 1.0010 1.0010 1.0010 1.0010
2538.126272 1.0010 1.0010 1.0010 1.0010 1.0010
2542.813773 1.0010 1.0010 1.0010 1.0010 1.0010
2547.501275 1.0010 1.0010 1.0010 1.0010 1.0010
2552.188777 1.0010 1.0010 1.0010 1.0010 1.0010
2556.876279 1.0010 1.0010 1.0010 1.0010 1.0010
2561.563780 1.0010 1.0010 1.0010 1.0010 1.0010
2566.251282 1.0010 1.0010 1.0007 1.0002 1.0000
2570.938784 1.0000 1.0000 1.0000 1.0000 1.0000
2575.626286 1.0000 1.0000 1.0000 1.0000 1.0000
2580.313787 1.0000 1.0000 1.0000 1.0000 1.0000
2585.001289 1.0000 1.0000 1.0000 1.0000 0.9994
2589.688791 0.9984 0.9980 0.9980 0.9980 0.9980
2594.376293 0.9980 0.9980 0.9980 0.9980 0.9980
2599.063794 0.9980 0.9980 0.9980 0.9980 0.9980
2603.751296 0.9977 0.9972 0.9970 0.9970 0.9965
2608.438798 0.9955 0.9947 0.9942 0.9935 0.9925
2613.126299 0.9920 0.9920 0.9920 0.9920 0.9917
2617.813801 0.9912 0.9910 0.9910 0.9910 0.9910
2622.501303 0.9910 0.9910 0.9905 0.9895 0.9890
2627.188805 0.9890 0.9888 0.9883 0.9880 0.9880
2631.876306 0.9880 0.9880 0.9880 0.9880 0.9880
2636.563808 0.9880 0.9875 0.9865 0.9860 0.9860
2641.251310 0.9860 0.9860 0.9860 0.9860 0.9858
2645.938812 0.9853 0.9850 0.9850 0.9850 0.9850
2650.626313 0.9848 0.9843 0.9840 0.9840 0.9840
2655.313815 0.9840 0.9840 0.9840 0.9840 0.9840
2660.001317 0.9836 0.9826 0.9820 0.9820 0.9820
2664.688819 0.9820 0.9820 0.9820 0.9820 0.9820
2669.376320 0.9818 0.9813 0.9810 0.9810 0.9810
2674.063822 0.9810 0.9806 0.9796 0.9790 0.9790
2678.751324 0.9790 0.9790 0.9790 0.9790 0.9788
2683.438826 0.9783 0.9780 0.9780 0.9780 0.9780
2688.126327 0.9780 0.9780 0.9777 0.9767 0.9760
2692.813829 0.9760 0.9760 0.9760 0.9758 0.9753
2697.501331 0.9750 0.9750 0.9747 0.9737 0.9730
2702.188833 0.9730 0.9728 0.9723 0.9717 0.9707
2706.876334 0.9700 0.9700 0.9698 0.9694 0.9686
2711.563836 0.9671 0.9659 0.9654 0.9647 0.9637
2716.251338 0.9626 0.9611 0.9600 0.9600 0.9599
2720.938840 0.9594 0.9587 0.9577 0.9569 0.9564
2725.626341 0.9557 0.9547 0.9539 0.9534 0.9529
2730.313843 0.9524 0.9518 0.9507 0.9496 0.9481
2735.001345 0.9466 0.9451 0.9435 0.9415 0.9398
2739.688846 0.9388 0.9379 0.9374 0.9369 0.9364
2744.376348 0.9358 0.9348 0.9340 0.9340 0.9339
2749.063850 0.9334 0.9330 0.9330 0.9328 0.9318
2753.751352 0.9309 0.9304 0.9298 0.9288 0.9279
2758.438853 0.9274 0.9268 0.9258 0.9249 0.9244
2763.126355 0.9238 0.9228 0.9220 0.9220 0.9219
2767.813857 0.9214 0.9208 0.9193 0.9180 0.9180
2772.501359 0.9179 0.9174 0.9168 0.9159 0.9150
2777.188860 0.9150 0.9149 0.9144 0.9139 0.9129
2781.876362 0.9118 0.9103 0.9088 0.9073 0.9059
2786.563864 0.9049 0.9038 0.9023 0.9008 0.8993
2791.251366 0.8979 0.8969 0.8958 0.8943 0.8929
2795.938867 0.8925 0.8919 0.8904 0.8890 0.8885
2800.626369 0.8879 0.8864 0.8849 0.8839 0.8829
2805.313871 0.8814 0.8799 0.8784 0.8769 0.8759
2810.001373 0.8749 0.8734 0.8719 0.8704 0.8689
2814.688874 0.8674 0.8659 0.8644 0.8629 0.8609
2819.376376 0.8589 0.8564 0.8540 0.8525 0.8510
2824.063878 0.8495 0.8480 0.8459 0.8439 0.8409
2828.751380 0.8379 0.8349 0.8319 0.8284 0.8250
2833.438881 0.8215 0.8180 0.8135 0.8090 0.8045
2838.126383 0.8000 0.7951 0.7901 0.7851 0.7801
2842.813885 0.7741 0.7682 0.7616 0.7551 0.7392
2847.501387 0.7233 0.7132 0.7033 0.6923 0.6814
2852.188888 0.6781 0.6751 0.6697 0.6642 0.6602
2856.876390 0.6562 0.6465 0.6366 0.6182 0.5992
2861.563892 0.5826 0.5662 0.5603 0.5553 0.5494
2866.251394 0.5434 0.5309 0.5179 0.4980 0.4775
2870.938895 0.4746 0.4731 0.4657 0.4577 0.4520
2875.626397 0.4465 0.4388 0.4308 0.4188 0.4064
2880.313899 0.4019 0.3984 0.3940 0.3895 0.3845
2885.001400 0.3795 0.3750 0.3705 0.3660 0.3615
2889.688902 0.3549 0.3479 0.3457 0.3442 0.3427
2894.376404 0.3412 0.3393 0.3373 0.3336 0.3296
2899.063906 0.3269 0.3244 0.3227 0.3212 0.3142
2903.751407 0.3062 0.2982 0.2903 0.2949 0.3018
2908.438909 0.3092 0.3167 0.3234 0.3298 0.3367
2913.126411 0.3437 0.3499 0.3559 0.3578 0.3588
2917.813913 0.3594 0.3599 0.3612 0.3627 0.3642
2922.501414 0.3657 0.3672 0.3687 0.3694 0.3699
2927.188916 0.3700 0.3700 0.3700 0.3700 0.3700
2931.876418 0.3700 0.3696 0.3691 0.3679 0.3664
2936.563920 0.3652 0.3642 0.3629 0.3614 0.3610
2941.251421 0.3610 0.3606 0.3601 0.3589 0.3574
2945.938923 0.3548 0.3518 0.3481 0.3441 0.3397
2950.626425 0.3352 0.3322 0.3297 0.3261 0.3221
2955.313927 0.3157 0.3082 0.3010 0.2940 0.2902
2960.001428 0.2877 0.2856 0.2836 0.2819 0.2804
2964.688930 0.2797 0.2792 0.2749 0.2689 0.2619
2969.376432 0.2544 0.2513 0.2503 0.2483 0.2458
2974.063934 0.2447 0.2442 0.2440 0.2440 0.2443
2978.751435 0.2448 0.2457 0.2467 0.2470 0.2470
2983.438937 0.2470 0.2470 0.2464 0.2454 0.2447
2988.126439 0.2442 0.2430 0.2416 0.2404 0.2394
2992.813941 0.2471 0.2600 0.2715 0.2821 0.2920
2997.501442 0.3014 0.3090 0.3155 0.3229 0.3309
3002.188944 0.3383 0.3452 0.3528 0.3608 0.3688
3006.876446 0.3767 0.3891 0.4046 0.4270 0.4544
3011.563948 0.4666 0.4676 0.4778 0.4949 0.5175
3016.251449 0.5439 0.5616 0.5731 0.5846 0.5960
3020.938951 0.6078 0.6197 0.6317 0.6437 0.6639
3025.626453 0.6908 0.7109 0.7253 0.7398 0.7543
3030.313954 0.7692 0.7847 0.7928 0.7943 0.7985
3035.001456 0.8050 0.8210 0.8455 0.8628 0.8737
3039.688958 0.8839 0.8934 0.9021 0.9101 0.9175
3044.376460 0.9245 0.9312 0.9377 0.9437 0.9492
3049.063961 0.9537 0.9572 0.9605 0.9635 0.9657
3053.751463 0.9672 0.9700 0.9739 0.9772 0.9797
3058.438965 0.9810 0.9810 0.9817 0.9832 0.9842
3063.126467 0.9847 0.9852 0.9857 0.9864 0.9874
3067.813968 0.9882 0.9887 0.9890 0.9890 0.9895
3072.501470 0.9904 0.9910 0.9910 0.9912 0.9917
3077.188972 0.9920 0.9920 0.9924 0.9934 0.9940
3081.876474 0.9940 0.9942 0.9947 0.9950 0.9950
3086.563975 0.9950 0.9950 0.9950 0.9950 0.9950
3091.251477 0.9950 0.9950 0.9950 0.9950 0.9950
3095.938979 0.9954 0.9964 0.9970 0.9970 0.9970
3100.626481 0.9970 0.9970 0.9970 0.9970 0.9970
3105.313982 0.9970 0.9970 0.9970 0.9970 0.9972
3110.001484 0.9977 0.9980 0.9980 0.9980 0.9980
3114.688986 0.9980 0.9980 0.9980 0.9980 0.9983
3119.376488 0.9993 1.0000 1.0000 1.0000 1.0000
3124.063989 1.0000 1.0000 1.0000 1.0000 1.0000
3128.751491 1.0000 1.0000 1.0000 1.0000 1.0000
3133.438993 1.0000 1.0000 1.0000 1.0000 1.0000
3138.126495 1.0000 1.0000 1.0000 1.0000 1.0000
3142.813996 1.0000 1.0000 1.0000 1.0000 1.0000
3147.501498 1.0000 1.0000 1.0000 1.0000 1.0000
3152.189000 1.0000 1.0000 1.0000 1.0000 1.0000
3156.876502 1.0000 1.0000 1.0000 1.0000 1.0000
3161.564003 1.0000 1.0000 1.0001 1.0006 1.0010
3166.251505 1.0010 1.0010 1.0010 1.0010 1.0010
3170.939007 1.0009 1.0004 1.0000 1.0000 1.0000
3175.626508 1.0000 1.0000 1.0000 1.0000 1.0000
3180.314010 1.0000 1.0000 0.9998 0.9988 0.9980
3185.001512 0.9980 0.9980 0.9980 0.9979 0.9974
3189.689014 0.9970 0.9970 0.9970 0.9970 0.9970
3194.376515 0.9970 0.9969 0.9959 0.9950 0.9950
3199.064017 0.9950 0.9950 0.9949 0.9944 0.9940
3203.751519 0.9940 0.9939 0.9929 0.9920 0.9920
3208.439021 0.9920 0.9920 0.9920 0.9920 0.9920
3213.126522 0.9920 0.9920 0.9915 0.9910 0.9910
3217.814024 0.9910 0.9910 0.9910 0.9910 0.9910
3222.501526 0.9910 0.9910 0.9910 0.9910 0.9915
3227.189028 0.9920 0.9920 0.9921 0.9931 0.9940
3231.876529 0.9940 0.9940 0.9940 0.9940 0.9945
3236.564031 0.9950 0.9950 0.9950 0.9960 0.9970
3241.251533 0.9970 0.9970 0.9970 0.9970 0.9975
3245.939035 0.9980 0.9980 0.9980 0.9990 1.0000
3250.626536 1.0000 1.0000 1.0000 1.0000 1.0005
3255.314038 1.0010 1.0010 1.0010 1.0010 1.0010
3260.001540 1.0015 1.0020 1.0020 1.0020 1.0020
3264.689042 1.0020 1.0020 1.0020 1.0030 1.0040
3269.376543 1.0040 1.0040 1.0045 1.0050 1.0045
3274.064045 1.0040 1.0045 1.0050 1.0050 1.0050
3278.751547 1.0050 1.0050 1.0050 1.0050 1.0050
3283.439049 1.0050 1.0050 1.0050 1.0050 1.0050
3288.126550 1.0050 1.0050 1.0050 1.0050 1.0059
3292.814052 1.0069 1.0070 1.0070 1.0070 1.0070
3297.501554 1.0070 1.0070 1.0070 1.0070 1.0070
3302.189056 1.0070 1.0070 1.0070 1.0070 1.0070
3306.876557 1.0070 1.0070 1.0070 1.0070 1.0070
3311.564059 1.0070 1.0070 1.0070 1.0070 1.0070
3316.251561 1.0070 1.0070 1.0070 1.0070 1.0070
3320.939062 1.0070 1.0070 1.0070 1.0070 1.0070
3325.626564 1.0070 1.0070 1.0070 1.0070 1.0070
3330.314066 1.0070 1.0070 1.0070 1.0070 1.0070
3335.001568 1.0070 1.0070 1.0070 1.0070 1.0070
3339.689069 1.0070 1.0070 1.0070 1.0070 1.0070
3344.376571 1.0070 1.0070 1.0070 1.0070 1.0070
3349.064073 1.0070 1.0070 1.0070 1.0062 1.0052
3353.751575 1.0050 1.0050 1.0050 1.0050 1.0050
3358.439076 1.0050 1.0050 1.0050 1.0050 1.0050
3363.126578 1.0050 1.0050 1.0050 1.0050 1.0050
3367.814080 1.0050 1.0050 1.0050 1.0050 1.0050
3372.501582 1.0039 1.0024 1.0031 1.0046 1.0050
3377.189083 1.0050 1.0050 1.0050 1.0047 1.0042
3381.876585 1.0040 1.0040 1.0040 1.0040 1.0033
3386.564087 1.0023 1.0020 1.0020 1.0027 1.0037
3391.251589 1.0033 1.0023 1.0017 1.0012 1.0010
3395.939090 1.0010 1.0010 1.0010 1.0010 1.0010
3400.626592 1.0010 1.0010 1.0010 1.0010 1.0010
3405.314094 1.0010 1.0010 1.0010 1.0010 1.0010
3410.001596 1.0010 1.0010 1.0013 1.0018 1.0020
3414.689097 1.0020 1.0020 1.0020 1.0020 1.0020
3419.376599 1.0026 1.0036 1.0040 1.0040 1.0040
3424.064101 1.0040 1.0040 1.0040 1.0040 1.0040
3428.751603 1.0040 1.0040 1.0040 1.0040 1.0040
3433.439104 1.0040 1.0034 1.0024 1.0020 1.0020
3438.126606 1.0020 1.0020 1.0017 1.0012 1.0010
3442.814108 1.0010 1.0010 1.0010 1.0010 1.0010
3447.501610 1.0010 1.0010 1.0010 1.0010 1.0007
3452.189111 1.0002 1.0000 1.0000 1.0000 1.0000
3456.876613 1.0000 1.0000 1.0000 1.0000 0.9995
3461.564115 0.9985 0.9980 0.9980 0.9980 0.9980
3466.251616 0.9980 0.9980 0.9985 0.9995 1.0000
3470.939118 1.0000 1.0000 1.0000 1.0000 1.0000
3475.626620 1.0000 1.0000 1.0002 1.0007 1.0010
3480.314122 1.0010 1.0010 1.0010 1.0010 1.0010
3485.001623 1.0010 1.0010 1.0010 1.0010 1.0010
3489.689125 1.0010 1.0010 1.0010 1.0010 1.0010
3494.376627 1.0012 1.0017 1.0020 1.0020 1.0020
3499.064129 1.0020 1.0020 1.0020 1.0020 1.0020
3503.751630 1.0020 1.0020 1.0020 1.0020 1.0020
3508.439132 1.0020 1.0020 1.0020 1.0024 1.0034
3513.126634 1.0040 1.0040 1.0040 1.0040 1.0040
3517.814136 1.0040 1.0040 1.0040 1.0040 1.0040
3522.501637 1.0040 1.0040 1.0036 1.0026 1.0020
3527.189139 1.0020 1.0020 1.0020 1.0020 1.0020
3531.876641 1.0018 1.0013 1.0010 1.0010 1.0008
3536.564143 1.0003 1.0000 1.0000 1.0000 1.0000
3541.251644 1.0000 1.0000 1.0000 1.0000 1.0000
3545.939146 1.0000 1.0000 1.0000 1.0000 1.0000
3550.626648 0.9997 0.9987 0.9980 0.9980 0.9979
3555.314150 0.9974 0.9967 0.9957 0.9950 0.9950
3560.001651 0.9949 0.9944 0.9937 0.9927 0.9919
3564.689153 0.9914 0.9910 0.9910 0.9910 0.9910
3569.376655 0.9910 0.9910 0.9908 0.9898 0.9892
3574.064157 0.9902 0.9910 0.9910 0.9910 0.9910
3578.751658 0.9908 0.9898 0.9890 0.9890 0.9889
3583.439160 0.9884 0.9880 0.9880 0.9880 0.9880
3588.126662 0.9878 0.9868 0.9859 0.9854 0.9850
3592.814163 0.9850 0.9849 0.9844 0.9838 0.9828
3597.501665 0.9819 0.9814 0.9807 0.9792 0.9778
3602.189167 0.9768 0.9759 0.9754 0.9747 0.9732
3606.876669 0.9717 0.9697 0.9678 0.9663 0.9646
3611.564170 0.9621 0.9596 0.9566 0.9537 0.9517
3616.251672 0.9495 0.9460 0.9423 0.9379 0.9334
3620.939174 0.9289 0.9243 0.9188 0.9137 0.9112
3625.626676 0.9084 0.9034 0.8984 0.8929 0.8872
3630.314177 0.8797 0.8722 0.8642 0.8566 0.8520
3635.001679 0.8476 0.8436 0.8391 0.8301 0.8210
3639.689181 0.8111 0.8011 0.7917 0.7822 0.7727
3644.376683 0.7634 0.7549 0.7464 0.7374 0.7289
3649.064184 0.7274 0.7260 0.7260 0.7260 0.7255
3653.751686 0.7250 0.7250 0.7250 0.7250 0.7249
3658.439188 0.7240 0.7226 0.7141 0.7058 0.7008
3663.126690 0.6958 0.6909 0.6867 0.7131 0.7390
3667.814191 0.7400 0.7411 0.7455 0.7500 0.7505
3672.501693 0.7510 0.7510 0.7510 0.7505 0.7500
3677.189195 0.7500 0.7500 0.7555 0.7610 0.7655
3681.876697 0.7699 0.7734 0.7769 0.7804 0.7839
3686.564198 0.7903 0.7968 0.8240 0.8519 0.8607
3691.251700 0.8688 0.8807 0.8926 0.9051 0.9175
3695.939202 0.9252 0.9327 0.9382 0.9437 0.9483
3700.626704 0.9527 0.9572 0.9617 0.9653 0.9688
3705.314205 0.9709 0.9728 0.9758 0.9787 0.9818
3710.001707 0.9848 0.9869 0.9888 0.9899 0.9909
3714.689209 0.9910 0.9910 0.9915 0.9920 0.9943
3719.376711 0.9967 0.9983 0.9998 1.0000 1.0000
3724.064212 1.0000 1.0000 1.0004 1.0009 1.0010
3728.751714 1.0010 1.0006 1.0001 1.0000 1.0000
3733.439216 1.0000 1.0000 1.0000 1.0000 1.0000
3738.126717 1.0000 1.0000 1.0000 1.0000 1.0000
3742.814219 1.0004 1.0009 1.0010 1.0010 1.0010
3747.501721 1.0010 1.0010 1.0010 1.0010 1.0010
3752.189223 1.0010 1.0010 1.0010 1.0010 1.0010
3756.876724 1.0010 1.0010 1.0010 1.0010 1.0010
3761.564226 1.0010 1.0010 1.0006 1.0001 1.0000
3766.251728 1.0000 1.0000 1.0000 1.0000 1.0000
3770.939230 1.0000 1.0000 0.9992 0.9982 0.9980
3775.626731 0.9980 0.9980 0.9980 0.9980 0.9980
3780.314233 0.9980 0.9980 0.9980 0.9980 0.9980
3785.001735 0.9980 0.9980 0.9980 0.9980 0.9980
3789.689237 0.9987 0.9997 1.0000 1.0000 1.0000
3794.376738 1.0000 1.0000 1.0000 1.0000 1.0000
3799.064240 0.9993 0.9983 0.9987 0.9997 1.0000
3803.751742 1.0000 1.0000 1.0000 1.0000 1.0000
##END=
