##TITLE=ETHANOL
##JCAMP-DX=4.24
##DATA TYPE=INFRARED SPECTRUM
##CLASS=COBLENTZ III
##ORIGIN=DOW CHEMICAL COMPANY
##OWNER=COBLENTZ SOCIETY
Collection (C) 2007 copyright by the U.S. Secretary of Commerce
on behalf of the United States of America. All rights reserved.
##DATE=1965/10/13
##CAS REGISTRY NO=64-17-5
##MOLFORM=C2H6O
##SOURCE REFERENCE=COBLENTZ NO. 10139
##$NIST SOURCE=COBLENTZ
##$NIST IMAGE=cob10139
##SPECTROMETER/DATA SYSTEM=DOW KBr FOREPRISM-GRATING
##INSTRUMENT PARAMETERS=BLAZED AT 3.5, 12.0, 20.0 MICRON, CHANGED AT 5.0, 7.5, 14.9 MICRON
##STATE=SOLUTION (10% IN CCl4 FOR 3800-1340, 10% IN CS2 FOR 1340-400 CM^-^1)
##PATH LENGTH=0.011, 0.010 CM
$$ SEE SPECTRUM NO. 8789 FOR "GAS-PHASE" STATE
##SAMPLING PROCEDURE=TRANSMISSION
##RESOLUTION=4
##DATA PROCESSING=DIGITIZED BY NIST FROM HARD COPY (FROM TWO SEGMENTS)
##XUNITS=1/CM
##YUNITS=TRANSMITTANCE
##XFACTOR=1.000000
##YFACTOR=1
##DELTAX=0.870576
##FIRSTX=392.049
##LASTX=3783.81
##FIRSTY=0.817
##MAXX=3783.81
##MINX=392.049
##MAXY=0.998
##MINY=0.009
##NPOINTS=3897
##XYDATA=(X++(Y..Y))
392.049000 0.8170 0.8180 0.8190 0.8190 0.8210
396.401881 0.8210 0.8220 0.8220 0.8220 0.8240
400.754762 0.8250 0.8250 0.8250 0.8260 0.8260
405.107644 0.8260 0.8290 0.8290 0.8300 0.8300
409.460525 0.8320 0.8320 0.8320 0.8300 0.8290
413.813406 0.8260 0.8250 0.8220 0.8190 0.8170
418.166287 0.8110 0.8030 0.7990 0.7920 0.7910
422.519169 0.7800 0.7740 0.7700 0.7700 0.7680
426.872050 0.7660 0.7660 0.7650 0.7650 0.7650
431.224931 0.7660 0.7660 0.7690 0.7700 0.7730
435.577812 0.7740 0.7760 0.7780 0.7830 0.7870
439.930693 0.7910 0.7930 0.7960 0.8040 0.8100
444.283575 0.8110 0.8150 0.8190 0.8250 0.8300
448.636456 0.8320 0.8330 0.8360 0.8390 0.8440
452.989337 0.8450 0.8480 0.8480 0.8490 0.8510
457.342218 0.8520 0.8520 0.8550 0.8550 0.8550
461.695100 0.8560 0.8560 0.8560 0.8580 0.8580
466.047981 0.8580 0.8580 0.8580 0.8560 0.8560
470.400862 0.8560 0.8580 0.8580 0.8560 0.8560
474.753743 0.8560 0.8560 0.8560 0.8560 0.8560
479.106624 0.8560 0.8560 0.8550 0.8540 0.8520
483.459506 0.8510 0.8510 0.8490 0.8490 0.8480
487.812387 0.8480 0.8470 0.8470 0.8450 0.8440
492.165268 0.8410 0.8400 0.8390 0.8360 0.8360
496.518149 0.8360 0.8340 0.8330 0.8320 0.8300
500.871031 0.8290 0.8260 0.8240 0.8210 0.8210
505.223912 0.8190 0.8180 0.8170 0.8150 0.8130
509.576793 0.8110 0.8090 0.8060 0.8030 0.8030
513.929674 0.8000 0.7990 0.7960 0.7950 0.7930
518.282555 0.7920 0.7870 0.7870 0.7840 0.7810
522.635437 0.7800 0.7770 0.7760 0.7740 0.7700
526.988318 0.7680 0.7650 0.7620 0.7610 0.7580
531.341199 0.7550 0.7510 0.7500 0.7470 0.7440
535.694080 0.7430 0.7400 0.7390 0.7360 0.7330
540.046962 0.7320 0.7310 0.7270 0.7250 0.7240
544.399843 0.7230 0.7230 0.7200 0.7180 0.7160
548.752724 0.7140 0.7130 0.7120 0.7090 0.7060
553.105605 0.7030 0.6990 0.6970 0.6970 0.6950
557.458486 0.6940 0.6930 0.6910 0.6880 0.6840
561.811368 0.6800 0.6780 0.6760 0.6750 0.6730
566.164249 0.6710 0.6680 0.6650 0.6630 0.6610
570.517130 0.6610 0.6600 0.6580 0.6580 0.6570
574.870011 0.6530 0.6490 0.6480 0.6450 0.6450
579.222893 0.6430 0.6430 0.6410 0.6370 0.6340
583.575774 0.6310 0.6300 0.6280 0.6270 0.6240
587.928655 0.6230 0.6220 0.6220 0.6200 0.6180
592.281536 0.6150 0.6150 0.6130 0.6110 0.6090
596.634417 0.6070 0.6070 0.6040 0.6040 0.6030
600.987299 0.6010 0.6000 0.5960 0.5940 0.5930
605.340180 0.5930 0.5900 0.5890 0.5860 0.5860
609.693061 0.5850 0.5830 0.5810 0.5790 0.5780
614.045942 0.5770 0.5750 0.5750 0.5740 0.5720
618.398824 0.5710 0.5700 0.5670 0.5670 0.5660
622.751705 0.5640 0.5630 0.5620 0.5620 0.5600
627.104586 0.5600 0.5600 0.5600 0.5600 0.5590
631.457467 0.5590 0.5570 0.5560 0.5550 0.5550
635.810348 0.5530 0.5530 0.5520 0.5520 0.5510
640.163230 0.5510 0.5490 0.5490 0.5490 0.5490
644.516111 0.5490 0.5490 0.5490 0.5490 0.5490
648.868992 0.5490 0.5510 0.5510 0.5520 0.5520
653.221873 0.5520 0.5530 0.5550 0.5560 0.5570
657.574755 0.5600 0.5600 0.5600 0.5600 0.5620
661.927636 0.5620 0.5620 0.5620 0.5620 0.5620
666.280517 0.5620 0.5630 0.5630 0.5630 0.5630
670.633398 0.5630 0.5630 0.5630 0.5630 0.5630
674.986279 0.5630 0.5630 0.5630 0.5630 0.5630
679.339161 0.5640 0.5660 0.5670 0.5670 0.5670
683.692042 0.5680 0.5710 0.5710 0.5720 0.5740
688.044923 0.5740 0.5750 0.5750 0.5780 0.5790
692.397804 0.5820 0.5830 0.5850 0.5860 0.5870
696.750686 0.5890 0.5900 0.5930 0.5940 0.5940
701.103567 0.5960 0.5980 0.6000 0.6010 0.6010
705.456448 0.6030 0.6040 0.6070 0.6090 0.6110
709.809329 0.6120 0.6130 0.6150 0.6160 0.6160
714.162210 0.6200 0.6220 0.6230 0.6280 0.6280
718.515092 0.6300 0.6310 0.6340 0.6370 0.6410
722.867973 0.6430 0.6430 0.6450 0.6460 0.6500
727.220854 0.6520 0.6540 0.6580 0.6580 0.6610
731.573735 0.6630 0.6670 0.6680 0.6690 0.6730
735.926617 0.6750 0.6760 0.6800 0.6820 0.6840
740.279498 0.6860 0.6900 0.6930 0.6940 0.6950
744.632379 0.6980 0.7020 0.7060 0.7060 0.7080
748.985260 0.7090 0.7100 0.7180 0.7230 0.7250
753.338141 0.7270 0.7310 0.7350 0.7390 0.7420
757.691023 0.7430 0.7470 0.7500 0.7530 0.7580
762.043904 0.7630 0.7690 0.7740 0.7740 0.7760
766.396785 0.7800 0.7830 0.7840 0.7850 0.7870
770.749666 0.7870 0.7920 0.7930 0.7930 0.7950
775.102548 0.8000 0.8020 0.8040 0.8060 0.8070
779.455429 0.8110 0.8110 0.8130 0.8170 0.8190
783.808310 0.8220 0.8250 0.8260 0.8280 0.8280
788.161191 0.8260 0.8250 0.8240 0.8190 0.8150
792.514072 0.8100 0.8030 0.7960 0.7890 0.7830
796.866954 0.7740 0.7660 0.7580 0.7500 0.7400
801.219835 0.7290 0.7120 0.7020 0.6930 0.6910
805.572716 0.6930 0.6990 0.7060 0.7130 0.7230
809.925597 0.7280 0.7590 0.7800 0.7960 0.8020
814.278479 0.8130 0.8290 0.8340 0.8440 0.8510
818.631360 0.8560 0.8600 0.8690 0.8710 0.8770
822.984241 0.8810 0.8840 0.8900 0.8920 0.8960
827.337122 0.8990 0.9010 0.9040 0.9070 0.9110
831.690003 0.9120 0.9190 0.9190 0.9220 0.9230
836.042885 0.9260 0.9310 0.9310 0.9330 0.9340
840.395766 0.9370 0.9380 0.9410 0.9440 0.9450
844.748647 0.9480 0.9490 0.9490 0.9490 0.9490
849.101528 0.9490 0.9480 0.9460 0.9450 0.9440
853.454410 0.9420 0.9380 0.9350 0.9310 0.9270
857.807291 0.9240 0.9200 0.9160 0.9110 0.9040
862.160172 0.8970 0.8860 0.8810 0.8700 0.8600
866.513053 0.8510 0.8360 0.8141 0.7801 0.7621
870.865934 0.7079 0.6480 0.6270 0.5370 0.4391
875.218816 0.3501 0.3121 0.2193 0.1851 0.1402
879.571697 0.1390 0.1410 0.1540 0.1690 0.1810
883.924578 0.2000 0.2210 0.2380 0.2869 0.3209
888.277459 0.3760 0.3981 0.5270 0.5790 0.6150
892.630341 0.6480 0.6760 0.7029 0.7289 0.7529
896.983222 0.7740 0.7930 0.8130 0.8300 0.8450
901.336103 0.8600 0.8790 0.8860 0.8940 0.9030
905.688984 0.9140 0.9220 0.9300 0.9330 0.9390
910.041865 0.9480 0.9520 0.9560 0.9640 0.9640
914.394747 0.9670 0.9690 0.9720 0.9760 0.9760
918.747628 0.9790 0.9790 0.9800 0.9820 0.9830
923.100509 0.9840 0.9840 0.9860 0.9870 0.9870
927.453390 0.9900 0.9910 0.9930 0.9930 0.9930
931.806271 0.9930 0.9910 0.9910 0.9910 0.9910
936.159153 0.9910 0.9910 0.9910 0.9910 0.9910
940.512034 0.9910 0.9900 0.9890 0.9890 0.9890
944.864915 0.9870 0.9870 0.9870 0.9870 0.9870
949.217796 0.9860 0.9860 0.9860 0.9840 0.9840
953.570678 0.9840 0.9830 0.9830 0.9800 0.9790
957.923559 0.9790 0.9780 0.9760 0.9760 0.9760
962.276440 0.9720 0.9710 0.9710 0.9680 0.9670
966.629321 0.9650 0.9640 0.9630 0.9610 0.9600
970.982202 0.9600 0.9570 0.9540 0.9540 0.9530
975.335084 0.9490 0.9480 0.9450 0.9440 0.9410
979.687965 0.9380 0.9350 0.9310 0.9310 0.9260
984.040846 0.9220 0.9190 0.9150 0.9120 0.9110
988.393727 0.9040 0.9000 0.8990 0.8930 0.8890
992.746609 0.8840 0.8790 0.8740 0.8710 0.8690
997.099490 0.8600 0.8560 0.8510 0.8480 0.8410
1001.452371 0.8330 0.8250 0.8180 0.8110 0.8040
1005.805252 0.7950 0.7830 0.7740 0.7660 0.7570
1010.158133 0.7470 0.7320 0.7170 0.7010 0.6870
1014.511015 0.6730 0.6580 0.6450 0.6310 0.6180
1018.863896 0.6010 0.5900 0.5600 0.5290 0.4990
1023.216777 0.4690 0.4420 0.4160 0.3960 0.3771
1027.569658 0.3570 0.3430 0.3080 0.2850 0.2550
1031.922540 0.2150 0.1810 0.1541 0.1301 0.1031
1036.275421 0.0940 0.0840 0.0730 0.0550 0.0380
1040.628302 0.0170 0.0130 0.0100 0.0100 0.0090
1044.981183 0.0090 0.0090 0.0090 0.0090 0.0090
1049.334064 0.0100 0.0100 0.0130 0.0160 0.0170
1053.686946 0.0200 0.0270 0.0310 0.0380 0.0490
1058.039827 0.0600 0.0690 0.1169 0.1390 0.1589
1062.392708 0.1650 0.1710 0.1750 0.1780 0.1800
1066.745589 0.1780 0.1780 0.1740 0.1730 0.1690
1071.098471 0.1550 0.1510 0.1430 0.1320 0.1250
1075.451352 0.1150 0.1060 0.1020 0.0980 0.0940
1079.804233 0.0800 0.0620 0.0540 0.0470 0.0400
1084.157114 0.0350 0.0310 0.0300 0.0300 0.0300
1088.509995 0.0310 0.0320 0.0340 0.0400 0.0460
1092.862877 0.0490 0.0540 0.0610 0.0650 0.1019
1097.215758 0.1130 0.1350 0.1500 0.1690 0.1930
1101.568639 0.2340 0.2929 0.3040 0.3339 0.3529
1105.921520 0.3771 0.4280 0.4440 0.4760 0.4930
1110.274402 0.5110 0.5230 0.5529 0.5620 0.5710
1114.627283 0.5820 0.5920 0.6030 0.6120 0.6230
1118.980164 0.6310 0.6380 0.6430 0.6500 0.6600
1123.333045 0.6610 0.6650 0.6730 0.6750 0.6800
1127.685926 0.6880 0.6900 0.6950 0.7030 0.7060
1132.038808 0.7120 0.7200 0.7230 0.7250 0.7290
1136.391689 0.7330 0.7390 0.7400 0.7420 0.7460
1140.744570 0.7480 0.7510 0.7550 0.7590 0.7610
1145.097451 0.7620 0.7650 0.7680 0.7700 0.7730
1149.450333 0.7740 0.7760 0.7780 0.7840 0.7880
1153.803214 0.7910 0.7920 0.7930 0.7990 0.8030
1158.156095 0.8070 0.8130 0.8210 0.8250 0.8300
1162.508976 0.8360 0.8400 0.8410 0.8440 0.8480
1166.861857 0.8490 0.8510 0.8520 0.8550 0.8560
1171.214739 0.8580 0.8590 0.8600 0.8620 0.8630
1175.567620 0.8630 0.8640 0.8640 0.8640 0.8640
1179.920501 0.8660 0.8660 0.8670 0.8670 0.8660
1184.273382 0.8660 0.8660 0.8660 0.8660 0.8660
1188.626264 0.8640 0.8630 0.8620 0.8600 0.8590
1192.979145 0.8590 0.8580 0.8580 0.8580 0.8580
1197.332026 0.8580 0.8560 0.8560 0.8550 0.8550
1201.684907 0.8550 0.8520 0.8520 0.8510 0.8490
1206.037788 0.8490 0.8470 0.8440 0.8410 0.8390
1210.390670 0.8390 0.8330 0.8320 0.8300 0.8290
1214.743551 0.8260 0.8240 0.8210 0.8180 0.8150
1219.096432 0.8110 0.8110 0.8070 0.8020 0.7990
1223.449313 0.7950 0.7920 0.7880 0.7830 0.7770
1227.802195 0.7730 0.7660 0.7610 0.7590 0.7530
1232.155076 0.7460 0.7400 0.7310 0.7250 0.7230
1236.507957 0.7140 0.7090 0.7060 0.6980 0.6950
1240.860838 0.6840 0.6820 0.6760 0.6720 0.6690
1245.213719 0.6670 0.6630 0.6600 0.6580 0.6580
1249.566601 0.6570 0.6540 0.6500 0.6500 0.6480
1253.919482 0.6460 0.6430 0.6390 0.6370 0.6310
1258.272363 0.6280 0.6220 0.6190 0.6110 0.6030
1262.625244 0.5900 0.5780 0.5750 0.5620 0.5510
1266.978126 0.5380 0.5330 0.5260 0.5210 0.5170
1271.331007 0.5170 0.5210 0.5230 0.5340 0.5420
1275.683888 0.5550 0.5620 0.5720 0.5750 0.5770
1280.036769 0.5810 0.5830 0.5870 0.5890 0.5900
1284.389650 0.5900 0.5900 0.5900 0.5890 0.5890
1288.742532 0.5870 0.5870 0.5820 0.5790 0.5750
1293.095413 0.5720 0.5670 0.5620 0.5490 0.5400
1297.448294 0.5360 0.5260 0.5230 0.5170 0.5100
1301.801175 0.5030 0.4990 0.4990 0.4880 0.4840
1306.154057 0.4810 0.4780 0.4770 0.4760 0.4690
1310.506938 0.4620 0.4570 0.4520 0.4480 0.4460
1314.859819 0.4430 0.4400 0.4360 0.4350 0.4310
1319.212700 0.4310 0.4290 0.4290 0.4290 0.4310
1323.565581 0.4310 0.4310 0.4330 0.4350 0.4360
1327.918463 0.4370 0.4400 0.4430 0.4460 0.4500
1332.271344 0.4550 0.4550 0.4580 0.4620 0.4660
1336.624225 0.4670 0.4720 0.4740 0.4760 0.4850
1340.977106 0.4930 0.5030 0.5140 0.5150 0.5180
1345.329988 0.5210 0.5230 0.5250 0.5250 0.5260
1349.682869 0.5270 0.5270 0.5290 0.5290 0.5290
1354.035750 0.5290 0.5290 0.5270 0.5270 0.5250
1358.388631 0.5250 0.5230 0.5210 0.5170 0.5150
1362.741512 0.5120 0.5110 0.5100 0.5020 0.4920
1367.094394 0.4880 0.4780 0.4610 0.4480 0.4350
1371.447275 0.4100 0.3580 0.3470 0.3380 0.3300
1375.800156 0.3210 0.3080 0.3000 0.2900 0.2850
1380.153037 0.2670 0.2630 0.2630 0.2670 0.2680
1384.505919 0.2710 0.2750 0.2810 0.2940 0.3060
1388.858800 0.3120 0.3160 0.3210 0.3270 0.3310
1393.211681 0.3320 0.3360 0.3410 0.3450 0.3490
1397.564562 0.3530 0.3540 0.3560 0.3600 0.3610
1401.917443 0.3610 0.3620 0.3620 0.3620 0.3640
1406.270325 0.3640 0.3640 0.3640 0.3640 0.3640
1410.623206 0.3650 0.3650 0.3660 0.3660 0.3680
1414.976087 0.3680 0.3680 0.3680 0.3690 0.3710
1419.328968 0.3710 0.3720 0.3730 0.3750 0.3760
1423.681850 0.3770 0.3770 0.3790 0.3800 0.3800
1428.034731 0.3840 0.3860 0.3870 0.3870 0.3900
1432.387612 0.3910 0.3940 0.3950 0.3960 0.3960
1436.740493 0.3950 0.3920 0.3910 0.3910 0.3880
1441.093374 0.3860 0.3810 0.3770 0.3710 0.3650
1445.446256 0.3560 0.3450 0.3420 0.3410 0.3410
1449.799137 0.3420 0.3430 0.3460 0.3460 0.3450
1454.152018 0.3450 0.3430 0.3420 0.3420 0.3430
1458.504899 0.3470 0.3540 0.3770 0.4010 0.4249
1462.857781 0.4440 0.4590 0.4650 0.4800 0.4930
1467.210662 0.5020 0.5100 0.5140 0.5270 0.5400
1471.563543 0.5510 0.5680 0.5720 0.5750 0.5780
1475.916424 0.5790 0.5790 0.5780 0.5770 0.5770
1480.269305 0.5750 0.5750 0.5750 0.5750 0.5770
1484.622187 0.5770 0.5790 0.5790 0.5820 0.5890
1488.975068 0.6030 0.6130 0.6330 0.6520 0.6710
1493.327949 0.6870 0.6930 0.7060 0.7120 0.7349
1497.680830 0.7440 0.7590 0.7650 0.7720 0.7810
1502.033712 0.7880 0.7950 0.7980 0.8030 0.8090
1506.386593 0.8130 0.8170 0.8210 0.8220 0.8290
1510.739474 0.8290 0.8320 0.8360 0.8390 0.8400
1515.092355 0.8440 0.8480 0.8490 0.8520 0.8550
1519.445236 0.8580 0.8600 0.8620 0.8690 0.8710
1523.798118 0.8710 0.8740 0.8770 0.8790 0.8820
1528.150999 0.8850 0.8890 0.8890 0.8920 0.8960
1532.503880 0.8990 0.9040 0.9040 0.9080 0.9110
1536.856761 0.9120 0.9180 0.9190 0.9220 0.9230
1541.209643 0.9240 0.9270 0.9290 0.9300 0.9300
1545.562524 0.9300 0.9310 0.9310 0.9310 0.9330
1549.915405 0.9330 0.9330 0.9330 0.9330 0.9330
1554.268286 0.9340 0.9340 0.9340 0.9340 0.9340
1558.621167 0.9340 0.9340 0.9330 0.9330 0.9330
1562.974049 0.9330 0.9330 0.9330 0.9330 0.9330
1567.326930 0.9330 0.9330 0.9330 0.9330 0.9330
1571.679811 0.9330 0.9330 0.9330 0.9340 0.9340
1576.032692 0.9340 0.9340 0.9340 0.9340 0.9340
1580.385574 0.9350 0.9350 0.9350 0.9370 0.9370
1584.738455 0.9370 0.9370 0.9370 0.9370 0.9370
1589.091336 0.9370 0.9370 0.9370 0.9350 0.9350
1593.444217 0.9350 0.9340 0.9340 0.9340 0.9340
1597.797098 0.9330 0.9330 0.9310 0.9310 0.9310
1602.149980 0.9310 0.9300 0.9300 0.9300 0.9300
1606.502861 0.9300 0.9300 0.9300 0.9300 0.9300
1610.855742 0.9300 0.9310 0.9310 0.9300 0.9300
1615.208623 0.9300 0.9290 0.9270 0.9270 0.9270
1619.561505 0.9260 0.9240 0.9240 0.9230 0.9230
1623.914386 0.9230 0.9220 0.9220 0.9220 0.9220
1628.267267 0.9220 0.9220 0.9220 0.9220 0.9220
1632.620148 0.9220 0.9230 0.9240 0.9240 0.9260
1636.973029 0.9270 0.9270 0.9290 0.9300 0.9300
1641.325911 0.9300 0.9310 0.9330 0.9330 0.9340
1645.678792 0.9340 0.9350 0.9370 0.9370 0.9380
1650.031673 0.9380 0.9380 0.9390 0.9390 0.9390
1654.384554 0.9390 0.9390 0.9410 0.9410 0.9410
1658.737436 0.9410 0.9410 0.9410 0.9410 0.9420
1663.090317 0.9440 0.9450 0.9450 0.9460 0.9460
1667.443198 0.9480 0.9480 0.9480 0.9490 0.9490
1671.796079 0.9500 0.9520 0.9530 0.9530 0.9530
1676.148960 0.9540 0.9540 0.9540 0.9560 0.9560
1680.501842 0.9560 0.9560 0.9560 0.9560 0.9560
1684.854723 0.9560 0.9560 0.9560 0.9560 0.9560
1689.207604 0.9570 0.9590 0.9570 0.9570 0.9570
1693.560485 0.9570 0.9570 0.9570 0.9570 0.9570
1697.913367 0.9570 0.9590 0.9590 0.9590 0.9600
1702.266248 0.9600 0.9600 0.9600 0.9610 0.9610
1706.619129 0.9610 0.9610 0.9610 0.9610 0.9610
1710.972010 0.9610 0.9610 0.9610 0.9610 0.9610
1715.324891 0.9610 0.9610 0.9610 0.9610 0.9610
1719.677773 0.9610 0.9630 0.9630 0.9630 0.9640
1724.030654 0.9640 0.9640 0.9640 0.9650 0.9650
1728.383535 0.9650 0.9650 0.9650 0.9650 0.9650
1732.736416 0.9650 0.9650 0.9650 0.9650 0.9650
1737.089298 0.9640 0.9640 0.9640 0.9640 0.9640
1741.442179 0.9640 0.9640 0.9640 0.9630 0.9630
1745.795060 0.9630 0.9630 0.9610 0.9610 0.9610
1750.147941 0.9610 0.9610 0.9600 0.9600 0.9610
1754.500822 0.9610 0.9610 0.9630 0.9630 0.9640
1758.853704 0.9640 0.9650 0.9650 0.9650 0.9670
1763.206585 0.9670 0.9680 0.9680 0.9680 0.9690
1767.559466 0.9710 0.9720 0.9740 0.9750 0.9750
1771.912347 0.9750 0.9750 0.9760 0.9760 0.9780
1776.265229 0.9780 0.9780 0.9780 0.9780 0.9780
1780.618110 0.9780 0.9790 0.9790 0.9820 0.9830
1784.970991 0.9830 0.9830 0.9830 0.9840 0.9840
1789.323872 0.9860 0.9860 0.9860 0.9870 0.9890
1793.676753 0.9890 0.9900 0.9900 0.9900 0.9910
1798.029635 0.9910 0.9910 0.9910 0.9910 0.9910
1802.382516 0.9910 0.9910 0.9910 0.9910 0.9910
1806.735397 0.9910 0.9910 0.9910 0.9910 0.9910
1811.088278 0.9910 0.9910 0.9910 0.9930 0.9930
1815.441160 0.9930 0.9940 0.9940 0.9940 0.9940
1819.794041 0.9940 0.9950 0.9970 0.9970 0.9970
1824.146922 0.9970 0.9970 0.9980 0.9980 0.9980
1828.499803 0.9980 0.9980 0.9980 0.9980 0.9980
1832.852684 0.9980 0.9980 0.9980 0.9980 0.9980
1837.205566 0.9980 0.9980 0.9980 0.9980 0.9980
1841.558447 0.9980 0.9980 0.9980 0.9980 0.9980
1845.911328 0.9970 0.9970 0.9970 0.9970 0.9970
1850.264209 0.9970 0.9970 0.9970 0.9970 0.9970
1854.617091 0.9970 0.9970 0.9950 0.9950 0.9950
1858.969972 0.9950 0.9950 0.9950 0.9950 0.9950
1863.322853 0.9950 0.9950 0.9950 0.9940 0.9940
1867.675734 0.9940 0.9940 0.9940 0.9940 0.9940
1872.028615 0.9930 0.9930 0.9930 0.9930 0.9930
1876.381497 0.9910 0.9910 0.9910 0.9910 0.9910
1880.734378 0.9910 0.9910 0.9900 0.9900 0.9890
1885.087259 0.9890 0.9890 0.9890 0.9890 0.9890
1889.440140 0.9890 0.9870 0.9860 0.9840 0.9840
1893.793022 0.9840 0.9840 0.9830 0.9830 0.9820
1898.145903 0.9800 0.9800 0.9790 0.9800 0.9800
1902.498784 0.9790 0.9780 0.9760 0.9760 0.9740
1906.851665 0.9720 0.9710 0.9670 0.9640 0.9610
1911.204546 0.9590 0.9560 0.9540 0.9500 0.9490
1915.557428 0.9480 0.9450 0.9440 0.9420 0.9370
1919.910309 0.9340 0.9330 0.9230 0.9200 0.9150
1924.263190 0.9140 0.9140 0.9140 0.9150 0.9160
1928.616071 0.9180 0.9190 0.9220 0.9230 0.9270
1932.968953 0.9330 0.9350 0.9410 0.9460 0.9500
1937.321834 0.9560 0.9610 0.9650 0.9680 0.9710
1941.674715 0.9710 0.9750 0.9760 0.9790 0.9790
1946.027596 0.9790 0.9790 0.9790 0.9820 0.9820
1950.380477 0.9830 0.9830 0.9830 0.9830 0.9840
1954.733359 0.9840 0.9860 0.9860 0.9860 0.9860
1959.086240 0.9860 0.9860 0.9860 0.9860 0.9860
1963.439121 0.9860 0.9860 0.9860 0.9860 0.9870
1967.792002 0.9870 0.9870 0.9870 0.9870 0.9870
1972.144883 0.9870 0.9870 0.9890 0.9890 0.9890
1976.497765 0.9890 0.9890 0.9900 0.9900 0.9900
1980.850646 0.9910 0.9910 0.9910 0.9910 0.9910
1985.203527 0.9930 0.9930 0.9930 0.9930 0.9930
1989.556408 0.9930 0.9930 0.9940 0.9940 0.9940
1993.909290 0.9940 0.9940 0.9940 0.9940 0.9940
1998.262171 0.9940 0.9940 0.9930 0.9930 0.9930
2002.615052 0.9930 0.9930 0.9930 0.9930 0.9930
2006.967933 0.9930 0.9930 0.9930 0.9930 0.9930
2011.320814 0.9930 0.9930 0.9930 0.9930 0.9930
2015.673696 0.9930 0.9930 0.9930 0.9920 0.9910
2020.026577 0.9905 0.9900 0.9900 0.9900 0.9905
2024.379458 0.9910 0.9920 0.9930 0.9930 0.9930
2028.732339 0.9930 0.9930 0.9930 0.9930 0.9930
2033.085221 0.9930 0.9930 0.9930 0.9930 0.9930
2037.438102 0.9930 0.9930 0.9930 0.9930 0.9930
2041.790983 0.9930 0.9930 0.9930 0.9930 0.9930
2046.143864 0.9930 0.9930 0.9930 0.9930 0.9930
2050.496745 0.9930 0.9930 0.9930 0.9930 0.9930
2054.849627 0.9930 0.9930 0.9930 0.9930 0.9930
2059.202508 0.9929 0.9919 0.9910 0.9910 0.9910
2063.555389 0.9910 0.9910 0.9905 0.9900 0.9900
2067.908270 0.9900 0.9900 0.9900 0.9895 0.9889
2072.261152 0.9879 0.9870 0.9865 0.9859 0.9849
2076.614033 0.9840 0.9840 0.9840 0.9840 0.9840
2080.966914 0.9835 0.9830 0.9825 0.9819 0.9809
2085.319795 0.9800 0.9800 0.9799 0.9794 0.9790
2089.672676 0.9790 0.9790 0.9790 0.9790 0.9790
2094.025558 0.9790 0.9790 0.9790 0.9790 0.9790
2098.378439 0.9790 0.9790 0.9790 0.9791 0.9796
2102.731320 0.9801 0.9811 0.9821 0.9826 0.9830
2107.084201 0.9830 0.9830 0.9830 0.9830 0.9830
2111.437083 0.9829 0.9824 0.9819 0.9809 0.9797
2115.789964 0.9777 0.9760 0.9760 0.9759 0.9754
2120.142845 0.9749 0.9744 0.9740 0.9740 0.9738
2124.495726 0.9728 0.9719 0.9714 0.9710 0.9710
2128.848607 0.9710 0.9710 0.9710 0.9710 0.9711
2133.201489 0.9716 0.9720 0.9720 0.9720 0.9720
2137.554370 0.9722 0.9732 0.9741 0.9746 0.9751
2141.907251 0.9756 0.9760 0.9760 0.9762 0.9772
2146.260132 0.9781 0.9786 0.9790 0.9790 0.9790
2150.613014 0.9790 0.9791 0.9796 0.9802 0.9812
2154.965895 0.9821 0.9826 0.9830 0.9830 0.9830
2159.318776 0.9830 0.9829 0.9824 0.9820 0.9820
2163.671657 0.9820 0.9820 0.9820 0.9820 0.9820
2168.024538 0.9820 0.9820 0.9820 0.9820 0.9820
2172.377420 0.9820 0.9820 0.9820 0.9820 0.9820
2176.730301 0.9820 0.9820 0.9820 0.9820 0.9820
2181.083182 0.9820 0.9820 0.9820 0.9820 0.9821
2185.436063 0.9826 0.9830 0.9830 0.9830 0.9830
2189.788945 0.9830 0.9830 0.9830 0.9830 0.9830
2194.141826 0.9830 0.9830 0.9830 0.9830 0.9830
2198.494707 0.9830 0.9830 0.9830 0.9830 0.9830
2202.847588 0.9830 0.9830 0.9830 0.9830 0.9830
2207.200469 0.9829 0.9824 0.9820 0.9820 0.9817
2211.553351 0.9807 0.9799 0.9794 0.9790 0.9790
2215.906232 0.9791 0.9796 0.9803 0.9813 0.9820
2220.259113 0.9820 0.9820 0.9820 0.9817 0.9807
2224.611994 0.9800 0.9800 0.9798 0.9793 0.9790
2228.964876 0.9790 0.9790 0.9790 0.9792 0.9797
2233.317757 0.9800 0.9800 0.9798 0.9793 0.9788
2237.670638 0.9783 0.9780 0.9780 0.9780 0.9780
2242.023519 0.9777 0.9767 0.9753 0.9733 0.9718
2246.376400 0.9713 0.9710 0.9710 0.9707 0.9697
2250.729282 0.9690 0.9690 0.9688 0.9683 0.9680
2255.082163 0.9680 0.9680 0.9680 0.9680 0.9680
2259.435044 0.9682 0.9687 0.9690 0.9690 0.9695
2263.787925 0.9710 0.9725 0.9740 0.9752 0.9757
2268.140807 0.9764 0.9774 0.9782 0.9787 0.9790
2272.493688 0.9790 0.9792 0.9797 0.9804 0.9814
2276.846569 0.9822 0.9827 0.9830 0.9830 0.9830
2281.199450 0.9830 0.9832 0.9837 0.9840 0.9840
2285.552331 0.9844 0.9854 0.9860 0.9860 0.9860
2289.905213 0.9860 0.9860 0.9860 0.9860 0.9860
2294.258094 0.9860 0.9860 0.9860 0.9860 0.9860
2298.610975 0.9860 0.9860 0.9860 0.9860 0.9860
2302.963856 0.9860 0.9860 0.9856 0.9846 0.9840
2307.316738 0.9840 0.9838 0.9833 0.9830 0.9830
2311.669619 0.9828 0.9823 0.9814 0.9799 0.9788
2316.022500 0.9783 0.9780 0.9780 0.9776 0.9766
2320.375381 0.9760 0.9760 0.9749 0.9724 0.9704
2324.728262 0.9689 0.9680 0.9680 0.9680 0.9680
2329.081144 0.9680 0.9680 0.9678 0.9673 0.9670
2333.434025 0.9670 0.9670 0.9670 0.9670 0.9670
2337.786906 0.9670 0.9670 0.9670 0.9670 0.9670
2342.139787 0.9670 0.9670 0.9670 0.9670 0.9670
2346.492669 0.9670 0.9670 0.9670 0.9670 0.9670
2350.845550 0.9670 0.9670 0.9670 0.9670 0.9670
2355.198431 0.9665 0.9655 0.9650 0.9650 0.9650
2359.551312 0.9650 0.9655 0.9665 0.9670 0.9670
2363.904193 0.9670 0.9670 0.9670 0.9670 0.9670
2368.257075 0.9670 0.9670 0.9670 0.9670 0.9670
2372.609956 0.9670 0.9670 0.9670 0.9670 0.9670
2376.962837 0.9670 0.9672 0.9677 0.9680 0.9680
2381.315718 0.9678 0.9672 0.9665 0.9655 0.9635
2385.668600 0.9605 0.9585 0.9575 0.9570 0.9570
2390.021481 0.9570 0.9570 0.9562 0.9547 0.9537
2394.374362 0.9532 0.9520 0.9500 0.9487 0.9482
2398.727243 0.9480 0.9480 0.9472 0.9457 0.9447
2403.080124 0.9442 0.9435 0.9425 0.9417 0.9412
2407.433006 0.9410 0.9410 0.9410 0.9410 0.9410
2411.785887 0.9410 0.9413 0.9418 0.9425 0.9435
2416.138768 0.9443 0.9448 0.9458 0.9473 0.9480
2420.491649 0.9480 0.9480 0.9480 0.9483 0.9488
2424.844531 0.9493 0.9498 0.9500 0.9500 0.9500
2429.197412 0.9500 0.9500 0.9500 0.9500 0.9500
2433.550293 0.9500 0.9500 0.9500 0.9500 0.9500
2437.903174 0.9500 0.9497 0.9492 0.9490 0.9490
2442.256055 0.9490 0.9490 0.9487 0.9482 0.9480
2446.608937 0.9480 0.9480 0.9480 0.9474 0.9464
2450.961818 0.9457 0.9452 0.9441 0.9426 0.9408
2455.314699 0.9388 0.9380 0.9380 0.9371 0.9356
2459.667580 0.9347 0.9342 0.9337 0.9332 0.9324
2464.020462 0.9314 0.9310 0.9310 0.9289 0.9254
2468.373343 0.9237 0.9232 0.9227 0.9222 0.9211
2472.726224 0.9196 0.9187 0.9182 0.9180 0.9180
2477.079105 0.9174 0.9164 0.9154 0.9144 0.9134
2481.431986 0.9124 0.9117 0.9112 0.9104 0.9094
2485.784868 0.9077 0.9057 0.9043 0.9033 0.9023
2490.137749 0.9013 0.9007 0.9002 0.9000 0.9000
2494.490630 0.8997 0.8992 0.8990 0.8990 0.8990
2498.843511 0.8990 0.8983 0.8973 0.8970 0.8970
2503.196393 0.8970 0.8970 0.8970 0.8970 0.8970
2507.549274 0.8970 0.8970 0.8970 0.8970 0.8970
2511.902155 0.8970 0.8970 0.8970 0.8970 0.8970
2516.255036 0.8970 0.8967 0.8962 0.8953 0.8943
2520.607917 0.8937 0.8932 0.8926 0.8921 0.8913
2524.960799 0.8903 0.8896 0.8891 0.8890 0.8890
2529.313680 0.8890 0.8890 0.8890 0.8890 0.8890
2533.666561 0.8890 0.8894 0.8899 0.8900 0.8900
2538.019442 0.8900 0.8900 0.8907 0.8917 0.8920
2542.372324 0.8920 0.8924 0.8929 0.8934 0.8939
2546.725205 0.8947 0.8957 0.8964 0.8969 0.8970
2551.078086 0.8970 0.8977 0.8987 0.8994 0.8999
2555.430967 0.9004 0.9009 0.9010 0.9010 0.9017
2559.783848 0.9027 0.9030 0.9030 0.9030 0.9030
2564.136730 0.9030 0.9030 0.9030 0.9030 0.9030
2568.489611 0.9030 0.9023 0.9013 0.9010 0.9010
2572.842492 0.9010 0.9010 0.9010 0.9010 0.9010
2577.195373 0.9010 0.9006 0.9001 0.9000 0.9000
2581.548255 0.9000 0.9000 0.8988 0.8973 0.8970
2585.901136 0.8970 0.8966 0.8961 0.8952 0.8942
2590.254017 0.8940 0.8940 0.8936 0.8931 0.8930
2594.606898 0.8930 0.8926 0.8921 0.8920 0.8920
2598.959779 0.8920 0.8920 0.8920 0.8920 0.8920
2603.312661 0.8920 0.8920 0.8920 0.8912 0.8902
2607.665542 0.8900 0.8900 0.8900 0.8900 0.8884
2612.018423 0.8864 0.8844 0.8824 0.8816 0.8811
2616.371304 0.8810 0.8810 0.8810 0.8810 0.8810
2620.724186 0.8810 0.8810 0.8810 0.8810 0.8810
2625.077067 0.8810 0.8810 0.8810 0.8810 0.8810
2629.429948 0.8810 0.8810 0.8810 0.8810 0.8810
2633.782829 0.8802 0.8792 0.8790 0.8790 0.8790
2638.135710 0.8790 0.8790 0.8790 0.8786 0.8781
2642.488592 0.8767 0.8752 0.8741 0.8731 0.8721
2646.841473 0.8711 0.8706 0.8701 0.8700 0.8700
2651.194354 0.8700 0.8700 0.8696 0.8691 0.8690
2655.547235 0.8690 0.8681 0.8671 0.8666 0.8661
2659.900117 0.8651 0.8641 0.8636 0.8631 0.8612
2664.252998 0.8592 0.8590 0.8590 0.8577 0.8562
2668.605879 0.8542 0.8522 0.8502 0.8482 0.8462
2672.958760 0.8442 0.8436 0.8431 0.8412 0.8392
2677.311641 0.8359 0.8323 0.8311 0.8301 0.8277
2681.664523 0.8252 0.8223 0.8193 0.8167 0.8142
2686.017404 0.8126 0.8111 0.8092 0.8072 0.8065
2690.370285 0.8060 0.8024 0.7984 0.7957 0.7932
2694.723166 0.7925 0.7920 0.7887 0.7852 0.7841
2699.076048 0.7831 0.7807 0.7782 0.7757 0.7732
2703.428929 0.7707 0.7682 0.7657 0.7632 0.7621
2707.781810 0.7611 0.7596 0.7581 0.7557 0.7532
2712.134691 0.7502 0.7471 0.7437 0.7401 0.7347
2716.487572 0.7292 0.7271 0.7251 0.7245 0.7240
2720.840454 0.7235 0.7230 0.7216 0.7201 0.7190
2725.193335 0.7180 0.7180 0.7180 0.7180 0.7180
2729.546216 0.7180 0.7180 0.7175 0.7170 0.7136
2733.899097 0.7101 0.7090 0.7080 0.7080 0.7080
2738.251979 0.7080 0.7080 0.7070 0.7060 0.7060
2742.604860 0.7060 0.7060 0.7060 0.7060 0.7060
2746.957741 0.7055 0.7050 0.7050 0.7050 0.7050
2751.310622 0.7050 0.7050 0.7050 0.7050 0.7050
2755.663503 0.7050 0.7050 0.7050 0.7050 0.7050
2760.016385 0.7050 0.7040 0.7030 0.7020 0.7010
2764.369266 0.7000 0.6990 0.6990 0.6990 0.6985
2768.722147 0.6980 0.6965 0.6950 0.6940 0.6930
2773.075028 0.6915 0.6899 0.6879 0.6860 0.6845
2777.427910 0.6830 0.6825 0.6820 0.6805 0.6789
2781.780791 0.6769 0.6748 0.6708 0.6668 0.6633
2786.133672 0.6600 0.6590 0.6580 0.6570 0.6557
2790.486553 0.6507 0.6458 0.6413 0.6368 0.6338
2794.839434 0.6308 0.6263 0.6219 0.6199 0.6178
2799.192316 0.6132 0.6086 0.6031 0.5976 0.5916
2803.545197 0.5853 0.5763 0.5675 0.5599 0.5529
2807.898078 0.5509 0.5486 0.5431 0.5376 0.5321
2812.250959 0.5269 0.5249 0.5227 0.5182 0.5139
2816.603841 0.5129 0.5117 0.5087 0.5057 0.5022
2820.956722 0.4985 0.4930 0.4876 0.4836 0.4797
2825.309603 0.4762 0.4726 0.4686 0.4645 0.4595
2829.662484 0.4548 0.4523 0.4499 0.4484 0.4465
2834.015365 0.4414 0.4365 0.4320 0.4273 0.4213
2838.368247 0.4153 0.4098 0.4044 0.3994 0.3945
2842.721128 0.3900 0.3855 0.3810 0.3765 0.3725
2847.074009 0.3686 0.3651 0.3608 0.3508 0.3408
2851.426890 0.3312 0.3218 0.3133 0.3048 0.2963
2855.779772 0.2879 0.2804 0.2728 0.2643 0.2553
2860.132653 0.2433 0.2313 0.2198 0.2086 0.1986
2864.485534 0.1888 0.1803 0.1719 0.1644 0.1568
2868.838415 0.1482 0.1398 0.1323 0.1249 0.1184
2873.191296 0.1128 0.1113 0.1098 0.1083 0.1070
2877.544178 0.1070 0.1069 0.1064 0.1060 0.1060
2881.897059 0.1059 0.1054 0.1050 0.1050 0.1050
2886.249940 0.1050 0.1050 0.1050 0.1051 0.1056
2890.602821 0.1061 0.1066 0.1072 0.1082 0.1092
2894.955703 0.1102 0.1117 0.1152 0.1190 0.1240
2899.308584 0.1289 0.1334 0.1378 0.1418 0.1459
2903.661465 0.1504 0.1542 0.1552 0.1562 0.1572
2908.014346 0.1582 0.1592 0.1600 0.1600 0.1602
2912.367227 0.1612 0.1617 0.1602 0.1586 0.1566
2916.720109 0.1541 0.1501 0.1467 0.1452 0.1439
2921.072990 0.1434 0.1431 0.1436 0.1441 0.1446
2925.425871 0.1456 0.1481 0.1505 0.1525 0.1545
2929.778752 0.1565 0.1582 0.1592 0.1607 0.1637
2934.131634 0.1666 0.1691 0.1714 0.1729 0.1748
2938.484515 0.1784 0.1824 0.1879 0.1926 0.1951
2942.837396 0.1982 0.2027 0.2070 0.2110 0.2156
2947.190277 0.2216 0.2261 0.2266 0.2269 0.2264
2951.543158 0.2253 0.2228 0.2201 0.2166 0.2135
2955.896040 0.2115 0.2066 0.1946 0.1818 0.1668
2960.248921 0.1511 0.1336 0.1180 0.1075 0.0972
2964.601802 0.0872 0.0773 0.0678 0.0579 0.0469
2968.954683 0.0370 0.0300 0.0236 0.0186 0.0147
2973.307564 0.0137 0.0130 0.0130 0.0133 0.0143
2977.660446 0.0153 0.0163 0.0175 0.0190 0.0217
2982.013327 0.0272 0.0324 0.0369 0.0421 0.0491
2986.366208 0.0614 0.0854 0.1094 0.1334 0.1573
2990.719089 0.1811 0.2034 0.2229 0.2386 0.2466
2995.071971 0.2533 0.2573 0.2631 0.2726 0.2986
2999.424852 0.3581 0.4074 0.4359 0.4557 0.4577
3003.777733 0.4608 0.4663 0.4731 0.4826 0.4912
3008.130614 0.4977 0.5067 0.5202 0.5329 0.5439
3012.483495 0.5543 0.5638 0.5726 0.5801 0.5859
3016.836377 0.5884 0.5919 0.5974 0.6035 0.6105
3021.189258 0.6157 0.6177 0.6204 0.6244 0.6281
3025.542139 0.6311 0.6332 0.6337 0.6353 0.6388
3029.895020 0.6414 0.6424 0.6439 0.6464 0.6484
3034.247902 0.6494 0.6504 0.6514 0.6522 0.6527
3038.600783 0.6532 0.6537 0.6544 0.6554 0.6560
3042.953664 0.6560 0.6560 0.6560 0.6560 0.6560
3047.306545 0.6560 0.6560 0.6560 0.6560 0.6556
3051.659426 0.6546 0.6538 0.6533 0.6530 0.6530
3056.012308 0.6528 0.6523 0.6520 0.6520 0.6520
3060.365189 0.6520 0.6514 0.6499 0.6484 0.6469
3064.718070 0.6460 0.6460 0.6458 0.6453 0.6446
3069.070951 0.6436 0.6428 0.6423 0.6420 0.6420
3073.423833 0.6414 0.6399 0.6379 0.6354 0.6338
3077.776714 0.6333 0.6326 0.6316 0.6303 0.6288
3082.129595 0.6271 0.6251 0.6236 0.6226 0.6213
3086.482476 0.6198 0.6188 0.6183 0.6169 0.6144
3090.835357 0.6121 0.6101 0.6086 0.6076 0.6063
3095.188239 0.6048 0.6038 0.6033 0.6018 0.5993
3099.541120 0.5971 0.5951 0.5931 0.5911 0.5891
3103.894001 0.5871 0.5844 0.5809 0.5781 0.5761
3108.246882 0.5743 0.5728 0.5706 0.5676 0.5646
3112.599764 0.5615 0.5580 0.5540 0.5513 0.5498
3116.952645 0.5480 0.5460 0.5430 0.5390 0.5343
3121.305526 0.5288 0.5250 0.5230 0.5200 0.5160
3125.658407 0.5135 0.5125 0.5118 0.5113 0.5093
3130.011288 0.5057 0.5027 0.5002 0.4969 0.4929
3134.364170 0.4902 0.4887 0.4877 0.4872 0.4844
3138.717051 0.4794 0.4742 0.4687 0.4652 0.4637
3143.069932 0.4615 0.4585 0.4562 0.4547 0.4530
3147.422813 0.4509 0.4479 0.4439 0.4396 0.4351
3151.775695 0.4308 0.4268 0.4226 0.4181 0.4152
3156.128576 0.4137 0.4111 0.4076 0.4038 0.3998
3160.481457 0.3958 0.3918 0.3881 0.3846 0.3819
3164.834338 0.3799 0.3784 0.3774 0.3748 0.3708
3169.187219 0.3668 0.3628 0.3588 0.3548 0.3510
3173.540101 0.3475 0.3457 0.3452 0.3442 0.3427
3177.892982 0.3392 0.3342 0.3289 0.3234 0.3184
3182.245863 0.3139 0.3088 0.3033 0.3007 0.3002
3186.598744 0.2971 0.2921 0.2868 0.2813 0.2764
3190.951626 0.2719 0.2674 0.2629 0.2595 0.2570
3195.304507 0.2551 0.2536 0.2495 0.2435 0.2380
3199.657388 0.2330 0.2292 0.2262 0.2229 0.2194
3204.010269 0.2162 0.2132 0.2114 0.2104 0.2088
3208.363150 0.2068 0.2042 0.2012 0.1970 0.1920
3212.716032 0.1888 0.1868 0.1854 0.1844 0.1822
3217.068913 0.1791 0.1764 0.1739 0.1705 0.1665
3221.421794 0.1631 0.1601 0.1568 0.1533 0.1517
3225.774675 0.1512 0.1485 0.1445 0.1398 0.1348
3230.127557 0.1308 0.1273 0.1254 0.1244 0.1234
3234.480438 0.1224 0.1207 0.1187 0.1164 0.1139
3238.833319 0.1110 0.1080 0.1057 0.1037 0.1017
3243.186200 0.0997 0.0987 0.0982 0.0973 0.0963
3247.539081 0.0953 0.0943 0.0920 0.0890 0.0857
3251.891963 0.0821 0.0803 0.0793 0.0776 0.0756
3256.244844 0.0743 0.0733 0.0727 0.0722 0.0706
3260.597725 0.0686 0.0666 0.0646 0.0626 0.0606
3264.950606 0.0583 0.0558 0.0543 0.0533 0.0523
3269.303488 0.0513 0.0503 0.0493 0.0483 0.0473
3273.656369 0.0466 0.0461 0.0456 0.0451 0.0443
3278.009250 0.0433 0.0426 0.0421 0.0413 0.0403
3282.362131 0.0396 0.0391 0.0386 0.0381 0.0373
3286.715012 0.0363 0.0356 0.0351 0.0346 0.0341
3291.067894 0.0333 0.0323 0.0316 0.0311 0.0306
3295.420775 0.0301 0.0300 0.0300 0.0293 0.0283
3299.773656 0.0280 0.0280 0.0280 0.0280 0.0276
3304.126537 0.0271 0.0270 0.0270 0.0270 0.0270
3308.479419 0.0263 0.0253 0.0250 0.0250 0.0250
3312.832300 0.0250 0.0246 0.0241 0.0240 0.0240
3317.185181 0.0240 0.0240 0.0240 0.0240 0.0240
3321.538062 0.0240 0.0240 0.0240 0.0240 0.0240
3325.890943 0.0240 0.0240 0.0240 0.0240 0.0244
3330.243825 0.0249 0.0250 0.0250 0.0250 0.0250
3334.596706 0.0250 0.0250 0.0250 0.0250 0.0250
3338.949587 0.0250 0.0250 0.0250 0.0250 0.0250
3343.302468 0.0258 0.0268 0.0270 0.0270 0.0270
3347.655350 0.0270 0.0274 0.0279 0.0280 0.0280
3352.008231 0.0280 0.0280 0.0280 0.0280 0.0280
3356.361112 0.0280 0.0288 0.0298 0.0300 0.0300
3360.713993 0.0300 0.0300 0.0300 0.0300 0.0304
3365.066874 0.0309 0.0310 0.0310 0.0314 0.0319
3369.419756 0.0320 0.0320 0.0328 0.0338 0.0340
3373.772637 0.0340 0.0340 0.0340 0.0344 0.0349
3378.125518 0.0350 0.0350 0.0363 0.0378 0.0384
3382.478399 0.0389 0.0390 0.0390 0.0394 0.0399
3386.831281 0.0408 0.0418 0.0420 0.0420 0.0433
3391.184162 0.0448 0.0459 0.0469 0.0479 0.0489
3395.537043 0.0494 0.0499 0.0513 0.0528 0.0534
3399.889924 0.0539 0.0544 0.0549 0.0559 0.0569
3404.242805 0.0570 0.0570 0.0574 0.0579 0.0597
3408.595687 0.0618 0.0620 0.0620 0.0629 0.0639
3412.948568 0.0644 0.0649 0.0654 0.0659 0.0669
3417.301449 0.0679 0.0689 0.0699 0.0713 0.0728
3421.654330 0.0748 0.0768 0.0783 0.0798 0.0800
3426.007212 0.0800 0.0818 0.0838 0.0854 0.0869
3430.360093 0.0888 0.0908 0.0928 0.0948 0.0968
3434.712974 0.0988 0.1004 0.1019 0.1034 0.1049
3439.065855 0.1059 0.1069 0.1084 0.1099 0.1114
3443.418736 0.1129 0.1139 0.1149 0.1178 0.1208
3447.771618 0.1215 0.1220 0.1257 0.1297 0.1328
3452.124499 0.1358 0.1374 0.1389 0.1395 0.1400
3456.477380 0.1414 0.1429 0.1449 0.1469 0.1503
3460.830261 0.1538 0.1569 0.1599 0.1610 0.1620
3465.183143 0.1620 0.1620 0.1644 0.1669 0.1703
3469.536024 0.1738 0.1773 0.1808 0.1824 0.1839
3473.888905 0.1850 0.1860 0.1874 0.1889 0.1943
3478.241786 0.1999 0.2039 0.2079 0.2109 0.2139
3482.594667 0.2145 0.2150 0.2179 0.2209 0.2220
3486.947549 0.2230 0.2259 0.2289 0.2344 0.2399
3491.300430 0.2420 0.2440 0.2460 0.2480 0.2495
3495.653311 0.2510 0.2540 0.2570 0.2620 0.2670
3500.006192 0.2770 0.2870 0.2925 0.2980 0.3015
3504.359074 0.3050 0.3070 0.3090 0.3130 0.3170
3508.711955 0.3235 0.3300 0.3355 0.3410 0.3440
3513.064836 0.3470 0.3485 0.3501 0.3521 0.3542
3517.417717 0.3602 0.3662 0.3727 0.3792 0.3852
3521.770598 0.3911 0.3966 0.4021 0.4041 0.4061
3526.123480 0.4096 0.4132 0.4207 0.4283 0.4373
3530.476361 0.4463 0.4528 0.4592 0.4627 0.4662
3534.829242 0.4697 0.4731 0.4746 0.4763 0.4828
3539.182123 0.4893 0.4958 0.5023 0.5088 0.5154
3543.535005 0.5229 0.5302 0.5342 0.5384 0.5454
3547.887886 0.5525 0.5595 0.5664 0.5724 0.5784
3552.240767 0.5844 0.5903 0.5943 0.5982 0.6012
3556.593648 0.6045 0.6115 0.6184 0.6244 0.6304
3560.946529 0.6359 0.6413 0.6453 0.6494 0.6550
3565.299411 0.6602 0.6627 0.6655 0.6710 0.6767
3569.652292 0.6842 0.6917 0.6987 0.7052 0.7077
3574.005173 0.7105 0.7160 0.7212 0.7232 0.7255
3578.358054 0.7310 0.7363 0.7398 0.7437 0.7513
3582.710936 0.7586 0.7636 0.7684 0.7714 0.7744
3587.063817 0.7774 0.7805 0.7850 0.7894 0.7924
3591.416698 0.7954 0.7989 0.8022 0.8042 0.8061
3595.769579 0.8066 0.8072 0.8092 0.8110 0.8110
3600.122460 0.8111 0.8121 0.8130 0.8130 0.8130
3604.475342 0.8130 0.8129 0.8119 0.8109 0.8104
3608.828223 0.8098 0.8083 0.8064 0.8024 0.7984
3613.181104 0.7944 0.7907 0.7887 0.7863 0.7812
3617.533985 0.7759 0.7688 0.7616 0.7531 0.7443
3621.886867 0.7338 0.7230 0.7110 0.7001 0.6946
3626.239748 0.6888 0.6813 0.6735 0.6645 0.6564
3630.592629 0.6529 0.6498 0.6488 0.6478 0.6468
3634.945510 0.6460 0.6460 0.6462 0.6472 0.6494
3639.298391 0.6569 0.6644 0.6719 0.6798 0.6893
3643.651273 0.6993 0.7113 0.7221 0.7281 0.7363
3648.004154 0.7538 0.7710 0.7865 0.8018 0.8164
3652.357035 0.8305 0.8425 0.8542 0.8647 0.8740
3656.709916 0.8785 0.8836 0.8911 0.8983 0.9043
3661.062798 0.9095 0.9120 0.9142 0.9152 0.9162
3665.415679 0.9172 0.9180 0.9180 0.9181 0.9186
3669.768560 0.9190 0.9190 0.9190 0.9190 0.9189
3674.121441 0.9184 0.9180 0.9180 0.9181 0.9186
3678.474322 0.9190 0.9190 0.9191 0.9196 0.9205
3682.827204 0.9225 0.9246 0.9271 0.9292 0.9302
3687.180085 0.9315 0.9335 0.9363 0.9413 0.9456
3691.532966 0.9481 0.9508 0.9538 0.9560 0.9560
3695.885847 0.9561 0.9566 0.9574 0.9589 0.9605
3700.238729 0.9625 0.9645 0.9665 0.9685 0.9705
3704.591610 0.9720 0.9720 0.9723 0.9733 0.9741
3708.944491 0.9746 0.9751 0.9756 0.9763 0.9773
3713.297372 0.9780 0.9780 0.9781 0.9786 0.9790
3717.650253 0.9790 0.9791 0.9796 0.9803 0.9813
3722.003135 0.9822 0.9827 0.9830 0.9830 0.9832
3726.356016 0.9837 0.9843 0.9853 0.9862 0.9867
3730.708897 0.9870 0.9870 0.9870 0.9870 0.9873
3735.061778 0.9883 0.9890 0.9890 0.9892 0.9897
3739.414660 0.9900 0.9900 0.9902 0.9907 0.9910
3743.767541 0.9910 0.9910 0.9910 0.9910 0.9910
3748.120422 0.9910 0.9910 0.9910 0.9910 0.9910
3752.473303 0.9910 0.9910 0.9910 0.9910 0.9910
3756.826184 0.9910 0.9910 0.9910 0.9910 0.9910
3761.179066 0.9910 0.9910 0.9910 0.9910 0.9910
3765.531947 0.9910 0.9910 0.9910 0.9910 0.9910
3769.884828 0.9910 0.9910 0.9910 0.9910 0.9910
3774.237709 0.9910 0.9910 0.9910 0.9910 0.9910
3778.590591 0.9910 0.9910 0.9910 0.9908 0.9903
3782.943472 0.9900 0.9900
##END=
