##TITLE=BENZENE
##JCAMP-DX=4.24
##DATA TYPE=INFRARED SPECTRUM
##CLASS=COBLENTZ II
##ORIGIN=DOW CORNING CORP.
##OWNER=COBLENTZ SOCIETY
Collection (C) 2007 copyright by the U.S. Secretary of Commerce
on behalf of the United States of America. All rights reserved.
##DATE=1965/03/04
##CAS REGISTRY NO=71-43-2
##MOLFORM=C6H6
##SOURCE REFERENCE=COBLENTZ NO. 10129
##$NIST SOURCE=COBLENTZ
##$NIST IMAGE=cob10129
##SPECTROMETER/DATA SYSTEM=PERKIN-ELMER 521 (GRATING)
##INSTRUMENT PARAMETERS=FILTERS AT 3150, 2500, 2000, 1150, 700, 410 AND GRATING CHANGES AT 2000, 630 CM^-^1
##STATE=SOLUTION (10% IN CCl4 FOR 3800-1300, 10% IN CS2 FOR 1300-625, AND 10% IN CCl4 FOR 625-240 CM^-^1) VS. SOLVENT
##PATH LENGTH=0.011, 0.011, AND 0.020 CM (CsBr CELL)
##SAMPLING PROCEDURE=TRANSMISSION
##RESOLUTION=4
##DATA PROCESSING=DIGITIZED BY NIST FROM HARD COPY (FROM TWO SEGMENTS)
##XUNITS=1/CM
##YUNITS=TRANSMITTANCE
##XFACTOR=1.000000
##YFACTOR=1
##DELTAX=0.921377
##FIRSTX=236.486
##LASTX=3793.92
##FIRSTY=0.797
##MAXX=3793.92
##MINX=236.486
##MAXY=0.925
##MINY=0
##NPOINTS=3862
##XYDATA=(X++(Y..Y))
236.486000 0.7970 0.8040 0.8060 0.8070 0.8070
241.092885 0.8080 0.8080 0.8070 0.8060 0.8070
245.699769 0.8080 0.8090 0.8090 0.8080 0.8080
250.306654 0.8080 0.8090 0.8090 0.8100 0.8120
254.913538 0.8120 0.8130 0.8130 0.8130 0.8130
259.520423 0.8140 0.8150 0.8150 0.8160 0.8160
264.127308 0.8170 0.8170 0.8190 0.8200 0.8200
268.734192 0.8210 0.8230 0.8270 0.8290 0.8290
273.341077 0.8300 0.8300 0.8310 0.8320 0.8330
277.947962 0.8330 0.8350 0.8350 0.8360 0.8360
282.554846 0.8380 0.8380 0.8390 0.8410 0.8430
287.161731 0.8440 0.8450 0.8470 0.8490 0.8510
291.768615 0.8520 0.8540 0.8550 0.8560 0.8590
296.375500 0.8600 0.8600 0.8620 0.8670 0.8680
300.982385 0.8710 0.8720 0.8730 0.8730 0.8750
305.589269 0.8750 0.8720 0.8700 0.8690 0.8650
310.196154 0.8640 0.8640 0.8630 0.8630 0.8630
314.803038 0.8630 0.8640 0.8640 0.8640 0.8650
319.409923 0.8680 0.8690 0.8700 0.8730 0.8730
324.016808 0.8700 0.8710 0.8720 0.8730 0.8730
328.623692 0.8750 0.8750 0.8750 0.8750 0.8680
333.230577 0.8680 0.8720 0.8720 0.8720 0.8720
337.837462 0.8710 0.8710 0.8690 0.8640 0.8630
342.444346 0.8630 0.8630 0.8640 0.8640 0.8640
347.051231 0.8630 0.8620 0.8620 0.8610 0.8610
351.658115 0.8620 0.8630 0.8640 0.8640 0.8650
356.265000 0.8670 0.8670 0.8670 0.8670 0.8670
360.871885 0.8670 0.8650 0.8650 0.8650 0.8650
365.478769 0.8640 0.8640 0.8630 0.8620 0.8620
370.085654 0.8620 0.8620 0.8620 0.8630 0.8630
374.692538 0.8620 0.8620 0.8620 0.8610 0.8610
379.299423 0.8600 0.8590 0.8590 0.8590 0.8570
383.906308 0.8560 0.8560 0.8540 0.8510 0.8480
388.513192 0.8480 0.8510 0.8530 0.8550 0.8550
393.120077 0.8560 0.8560 0.8550 0.8550 0.8540
397.726961 0.8540 0.8540 0.8550 0.8560 0.8560
402.333846 0.8600 0.8620 0.8630 0.8630 0.8640
406.940731 0.8640 0.8670 0.8700 0.8710 0.8720
411.547615 0.8730 0.8730 0.8730 0.8750 0.8770
416.154500 0.8780 0.8820 0.8830 0.8840 0.8850
420.761385 0.8850 0.8860 0.8860 0.8870 0.8870
425.368269 0.8870 0.8870 0.8880 0.8900 0.8910
429.975154 0.8910 0.8920 0.8930 0.8930 0.8940
434.582038 0.8950 0.8950 0.8960 0.8960 0.8990
439.188923 0.8990 0.9030 0.9060 0.9060 0.9070
443.795808 0.9080 0.9080 0.9060 0.9040 0.9030
448.402692 0.9020 0.9010 0.9010 0.9000 0.9000
453.009577 0.9000 0.9010 0.9020 0.9070 0.9080
457.616461 0.9090 0.9040 0.9030 0.9030 0.9040
462.223346 0.9080 0.9110 0.9140 0.9140 0.9160
466.830231 0.9170 0.9180 0.9180 0.9190 0.9200
471.437115 0.9200 0.9220 0.9220 0.9200 0.9190
476.044000 0.9190 0.9180 0.9180 0.9190 0.9200
480.650885 0.9220 0.9230 0.9240 0.9250 0.9250
485.257769 0.9250 0.9240 0.9220 0.9200 0.9180
489.864654 0.9160 0.9140 0.9090 0.9060 0.9040
494.471538 0.9040 0.9030 0.9020 0.9020 0.9030
499.078423 0.9030 0.9040 0.9030 0.9030 0.9030
503.685308 0.9020 0.9020 0.9010 0.9010 0.9000
508.292192 0.9000 0.8990 0.8990 0.8980 0.8980
512.899077 0.8980 0.8990 0.9010 0.9020 0.9030
517.505961 0.9030 0.9030 0.9040 0.9040 0.9040
522.112846 0.9040 0.9040 0.9030 0.9030 0.9030
526.719731 0.9040 0.9100 0.9100 0.9140 0.9150
531.326615 0.9150 0.9160 0.9160 0.9160 0.9170
535.933500 0.9150 0.9120 0.9100 0.9090 0.9090
540.540385 0.9160 0.9160 0.9160 0.9150 0.9150
545.147269 0.9140 0.9100 0.9070 0.9070 0.9090
549.754154 0.9090 0.9100 0.9100 0.9100 0.9100
554.361038 0.9090 0.9090 0.9090 0.9080 0.9080
558.967923 0.9070 0.9060 0.9070 0.9070 0.9080
563.574808 0.9090 0.9090 0.9110 0.9120 0.9110
568.181692 0.9080 0.9060 0.9020 0.9020 0.9000
572.788577 0.9000 0.9000 0.9000 0.8990 0.8980
577.395461 0.8960 0.8950 0.8950 0.8950 0.8940
582.002346 0.8930 0.8920 0.8880 0.8870 0.8870
586.609231 0.8860 0.8860 0.8860 0.8850 0.8850
591.216115 0.8840 0.8840 0.8830 0.8830 0.8830
595.823000 0.8830 0.8820 0.8800 0.8780 0.8750
600.429885 0.8710 0.8690 0.8690 0.8670 0.8670
605.036769 0.8670 0.8650 0.8650 0.8640 0.8640
609.643654 0.8630 0.8630 0.8630 0.8640 0.8640
614.250538 0.8610 0.8600 0.8550 0.8540 0.8530
618.857423 0.8520 0.8510 0.8480 0.8460 0.8430
623.464308 0.8390 0.8280 0.8010 0.7780 0.7720
628.071192 0.7700 0.7670 0.7640 0.7600 0.7500
632.678077 0.7470 0.7450 0.7450 0.7440 0.7380
637.284961 0.7330 0.7260 0.7200 0.7140 0.7090
641.891846 0.7010 0.6910 0.6860 0.6710 0.6620
646.498731 0.6540 0.6470 0.6350 0.6231 0.6081
651.105615 0.5910 0.5710 0.5500 0.5290 0.5071
655.712500 0.4831 0.4601 0.4361 0.4131 0.3891
660.319384 0.3660 0.3340 0.2491 0.2100 0.1421
664.926269 0.0761 0.0032 0.0010 0.0000 0.0000
669.533154 0.0000 0.0010 0.0020 0.0030 0.0050
674.140038 0.0100 0.0110 0.0200 0.0300 0.0410
678.746923 0.0670 0.1040 0.1499 0.1999 0.2499
683.353808 0.2959 0.3339 0.3599 0.4098 0.4508
687.960692 0.4740 0.4940 0.5120 0.5539 0.5829
692.567577 0.5970 0.6050 0.6199 0.6349 0.6489
697.174461 0.6580 0.6630 0.6700 0.6780 0.6930
701.781346 0.7070 0.7140 0.7220 0.7280 0.7390
706.388231 0.7450 0.7500 0.7580 0.7620 0.7650
710.995115 0.7700 0.7730 0.7760 0.7780 0.7830
715.602000 0.7890 0.7900 0.7930 0.7940 0.7970
720.208884 0.7970 0.7990 0.8020 0.8070 0.8120
724.815769 0.8130 0.8140 0.8150 0.8190 0.8200
729.422654 0.8210 0.8220 0.8230 0.8270 0.8310
734.029538 0.8310 0.8320 0.8330 0.8350 0.8350
738.636423 0.8360 0.8370 0.8380 0.8390 0.8390
743.243308 0.8390 0.8390 0.8380 0.8380 0.8370
747.850192 0.8370 0.8370 0.8380 0.8390 0.8400
752.457077 0.8430 0.8430 0.8440 0.8450 0.8480
757.063961 0.8490 0.8480 0.8460 0.8430 0.8410
761.670846 0.8400 0.8360 0.8360 0.8350 0.8350
766.277731 0.8270 0.8230 0.8190 0.8140 0.8070
770.884615 0.8070 0.8120 0.8220 0.8290 0.8350
775.491500 0.8400 0.8440 0.8520 0.8530 0.8540
780.098384 0.8530 0.8530 0.8540 0.8560 0.8570
784.705269 0.8570 0.8560 0.8550 0.8550 0.8560
789.312154 0.8570 0.8590 0.8600 0.8620 0.8630
793.919038 0.8630 0.8630 0.8640 0.8670 0.8680
798.525923 0.8680 0.8650 0.8640 0.8620 0.8620
803.132808 0.8600 0.8550 0.8550 0.8530 0.8520
807.739692 0.8520 0.8530 0.8530 0.8540 0.8520
812.346577 0.8450 0.8430 0.8410 0.8410 0.8410
816.953461 0.8400 0.8400 0.8400 0.8390 0.8370
821.560346 0.8310 0.8270 0.8250 0.8210 0.8170
826.167231 0.8160 0.8140 0.8100 0.8080 0.8080
830.774115 0.8070 0.8050 0.8000 0.7970 0.7960
835.381000 0.7920 0.7850 0.7830 0.7810 0.7810
839.987884 0.7800 0.7810 0.7820 0.7850 0.7890
844.594769 0.7910 0.7930 0.7930 0.7940 0.7960
849.201654 0.8000 0.8050 0.8090 0.8090 0.8090
853.808538 0.8090 0.8100 0.8150 0.8190 0.8220
858.415423 0.8240 0.8270 0.8300 0.8320 0.8330
863.022308 0.8410 0.8450 0.8470 0.8480 0.8490
867.629192 0.8520 0.8530 0.8510 0.8510 0.8510
872.236077 0.8520 0.8540 0.8550 0.8570 0.8590
876.842961 0.8590 0.8600 0.8600 0.8570 0.8560
881.449846 0.8560 0.8590 0.8590 0.8590 0.8590
886.056731 0.8590 0.8570 0.8560 0.8560 0.8560
890.663615 0.8570 0.8590 0.8590 0.8570 0.8560
895.270500 0.8540 0.8530 0.8530 0.8520 0.8490
899.877384 0.8490 0.8480 0.8490 0.8510 0.8510
904.484269 0.8510 0.8510 0.8490 0.8490 0.8520
909.091154 0.8520 0.8520 0.8520 0.8510 0.8480
913.698038 0.8480 0.8470 0.8460 0.8460 0.8460
918.304923 0.8460 0.8450 0.8450 0.8450 0.8460
922.911807 0.8460 0.8460 0.8460 0.8450 0.8440
927.518692 0.8430 0.8430 0.8430 0.8430 0.8430
932.125577 0.8400 0.8390 0.8390 0.8390 0.8400
936.732461 0.8400 0.8370 0.8360 0.8350 0.8320
941.339346 0.8310 0.8300 0.8280 0.8250 0.8250
945.946231 0.8250 0.8240 0.8230 0.8170 0.8140
950.553115 0.8120 0.8100 0.8070 0.8060 0.8050
955.160000 0.8020 0.8000 0.7990 0.7970 0.7960
959.766884 0.7970 0.7970 0.7960 0.7960 0.7940
964.373769 0.7940 0.7940 0.7940 0.7940 0.7940
968.980654 0.7960 0.7960 0.7960 0.7970 0.7990
973.587538 0.8000 0.8010 0.8010 0.8010 0.7990
978.194423 0.7980 0.7970 0.7960 0.7960 0.7940
982.801307 0.7940 0.7930 0.7930 0.7930 0.7920
987.408192 0.7910 0.7900 0.7900 0.7900 0.7910
992.015077 0.7920 0.7930 0.7930 0.7930 0.7930
996.621961 0.7920 0.7920 0.7900 0.7860 0.7830
1001.228846 0.7800 0.7750 0.7720 0.7670 0.7650
1005.835731 0.7620 0.7610 0.7610 0.7610 0.7620
1010.442615 0.7620 0.7610 0.7600 0.7540 0.7510
1015.049500 0.7460 0.7430 0.7360 0.7280 0.7151
1019.656384 0.6970 0.6870 0.6660 0.6480 0.6240
1024.263269 0.6110 0.5771 0.5302 0.4951 0.4592
1028.870154 0.4240 0.3890 0.3510 0.3121 0.2571
1033.477038 0.2570 0.2710 0.3049 0.3428 0.3958
1038.083923 0.4581 0.5220 0.5790 0.6040 0.6699
1042.690807 0.6960 0.7180 0.7350 0.7500 0.7620
1047.297692 0.7720 0.7810 0.7890 0.7970 0.8010
1051.904577 0.8070 0.8130 0.8200 0.8220 0.8230
1056.511461 0.8240 0.8250 0.8280 0.8310 0.8320
1061.118346 0.8320 0.8320 0.8330 0.8330 0.8350
1065.725231 0.8350 0.8360 0.8380 0.8390 0.8390
1070.332115 0.8390 0.8400 0.8400 0.8410 0.8410
1074.939000 0.8430 0.8430 0.8430 0.8430 0.8410
1079.545884 0.8410 0.8410 0.8430 0.8430 0.8440
1084.152769 0.8440 0.8440 0.8430 0.8430 0.8430
1088.759654 0.8410 0.8410 0.8430 0.8440 0.8450
1093.366538 0.8450 0.8440 0.8450 0.8450 0.8460
1097.973423 0.8460 0.8450 0.8400 0.8390 0.8370
1102.580307 0.8350 0.8330 0.8320 0.8320 0.8330
1107.187192 0.8330 0.8330 0.8350 0.8360 0.8360
1111.794077 0.8350 0.8330 0.8320 0.8310 0.8230
1116.400961 0.8200 0.8190 0.8190 0.8170 0.8170
1121.007846 0.8160 0.8160 0.8140 0.8130 0.8130
1125.614731 0.8100 0.8070 0.8050 0.8020 0.8010
1130.221615 0.8000 0.8000 0.7990 0.7990 0.7970
1134.828500 0.7940 0.7930 0.7890 0.7880 0.7850
1139.435384 0.7830 0.7830 0.7780 0.7760 0.7750
1144.042269 0.7740 0.7740 0.7740 0.7740 0.7740
1148.649154 0.7730 0.7730 0.7720 0.7700 0.7700
1153.256038 0.7690 0.7670 0.7650 0.7640 0.7620
1157.862923 0.7590 0.7590 0.7520 0.7500 0.7450
1162.469807 0.7360 0.7310 0.7280 0.7220 0.7170
1167.076692 0.7140 0.7110 0.7100 0.7100 0.7150
1171.683577 0.7190 0.7250 0.7330 0.7350 0.7390
1176.290461 0.7410 0.7420 0.7470 0.7590 0.7610
1180.897346 0.7700 0.7780 0.7850 0.7920 0.7960
1185.504230 0.8000 0.8050 0.8090 0.8130 0.8140
1190.111115 0.8160 0.8160 0.8190 0.8210 0.8220
1194.718000 0.8230 0.8230 0.8240 0.8280 0.8330
1199.324884 0.8360 0.8370 0.8380 0.8400 0.8410
1203.931769 0.8430 0.8430 0.8430 0.8440 0.8440
1208.538654 0.8450 0.8450 0.8460 0.8490 0.8540
1213.145538 0.8540 0.8520 0.8520 0.8530 0.8530
1217.752423 0.8550 0.8570 0.8570 0.8590 0.8560
1222.359307 0.8530 0.8530 0.8550 0.8560 0.8560
1226.966192 0.8570 0.8590 0.8600 0.8600 0.8590
1231.573077 0.8600 0.8630 0.8630 0.8620 0.8620
1236.179961 0.8610 0.8590 0.8560 0.8550 0.8520
1240.786846 0.8490 0.8480 0.8490 0.8510 0.8510
1245.393730 0.8530 0.8540 0.8590 0.8640 0.8670
1250.000615 0.8690 0.8700 0.8760 0.8780 0.8770
1254.607500 0.8730 0.8720 0.8720 0.8720 0.8730
1259.214384 0.8730 0.8730 0.8750 0.8760 0.8760
1263.821269 0.8760 0.8770 0.8790 0.8790 0.8800
1268.428154 0.8790 0.8790 0.8790 0.8790 0.8800
1273.035038 0.8820 0.8830 0.8790 0.8780 0.8780
1277.641923 0.8790 0.8790 0.8800 0.8800 0.8790
1282.248807 0.8780 0.8770 0.8750 0.8730 0.8720
1286.855692 0.8720 0.8720 0.8710 0.8710 0.8710
1291.462577 0.8700 0.8700 0.8700 0.8700 0.8710
1296.069461 0.8720 0.8750 0.8760 0.8760 0.8770
1300.676346 0.8770 0.8780 0.8780 0.8780 0.8770
1305.283230 0.8760 0.8760 0.8750 0.8750 0.8750
1309.890115 0.8760 0.8780 0.8790 0.8800 0.8820
1314.497000 0.8830 0.8840 0.8850 0.8850 0.8850
1319.103884 0.8840 0.8840 0.8850 0.8850 0.8870
1323.710769 0.8870 0.8880 0.8880 0.8880 0.8880
1328.317654 0.8880 0.8880 0.8880 0.8880 0.8880
1332.924538 0.8880 0.8900 0.8900 0.8900 0.8910
1337.531423 0.8910 0.8910 0.8900 0.8900 0.8900
1342.138307 0.8880 0.8880 0.8870 0.8870 0.8860
1346.745192 0.8850 0.8840 0.8840 0.8840 0.8850
1351.352077 0.8850 0.8860 0.8860 0.8860 0.8860
1355.958961 0.8870 0.8870 0.8870 0.8860 0.8860
1360.565846 0.8860 0.8850 0.8850 0.8840 0.8840
1365.172730 0.8830 0.8830 0.8820 0.8790 0.8780
1369.779615 0.8770 0.8760 0.8750 0.8730 0.8720
1374.386500 0.8720 0.8720 0.8720 0.8720 0.8710
1378.993384 0.8710 0.8690 0.8630 0.8540 0.8480
1383.600269 0.8390 0.8310 0.8240 0.8130 0.7991
1388.207154 0.7930 0.7880 0.7880 0.7920 0.8080
1392.814038 0.8190 0.8300 0.8370 0.8450 0.8490
1397.420923 0.8530 0.8560 0.8610 0.8650 0.8670
1402.027807 0.8690 0.8700 0.8710 0.8710 0.8710
1406.634692 0.8700 0.8700 0.8720 0.8750 0.8760
1411.241577 0.8760 0.8770 0.8770 0.8780 0.8780
1415.848461 0.8780 0.8780 0.8790 0.8790 0.8800
1420.455346 0.8800 0.8800 0.8800 0.8790 0.8790
1425.062230 0.8760 0.8750 0.8750 0.8730 0.8730
1429.669115 0.8720 0.8720 0.8730 0.8730 0.8750
1434.276000 0.8750 0.8760 0.8770 0.8770 0.8750
1438.882884 0.8730 0.8720 0.8720 0.8710 0.8690
1443.489769 0.8680 0.8670 0.8650 0.8640 0.8630
1448.096653 0.8590 0.8540 0.8520 0.8510 0.8480
1452.703538 0.8440 0.8400 0.8370 0.8330 0.8320
1457.310423 0.8310 0.8270 0.8220 0.8170 0.8120
1461.917307 0.8040 0.7970 0.7860 0.7770 0.7580
1466.524192 0.7331 0.7011 0.6801 0.6581 0.6421
1471.131077 0.6129 0.5639 0.4810 0.4590 0.4270
1475.737961 0.3940 0.3501 0.2872 0.1983 0.0635
1480.344846 0.0450 0.0450 0.0600 0.1529 0.2179
1484.951730 0.3238 0.4118 0.4898 0.5747 0.6378
1489.558615 0.6680 0.6970 0.7230 0.7460 0.7660
1494.165500 0.7820 0.7940 0.8050 0.8120 0.8150
1498.772384 0.8190 0.8220 0.8240 0.8270 0.8290
1503.379269 0.8310 0.8310 0.8300 0.8300 0.8300
1507.986153 0.8300 0.8300 0.8290 0.8280 0.8250
1512.593038 0.8200 0.8150 0.8100 0.8060 0.7960
1517.199923 0.7860 0.7780 0.7690 0.7610 0.7430
1521.806807 0.7280 0.7270 0.7290 0.7380 0.7430
1526.413692 0.7570 0.7720 0.7900 0.8040 0.8210
1531.020577 0.8350 0.8430 0.8560 0.8680 0.8720
1535.627461 0.8780 0.8850 0.8920 0.9010 0.9060
1540.234346 0.9090 0.9140 0.9150 0.9220 0.9230
1544.841230 0.9230 0.9230 0.9240 0.9240 0.9240
1549.448115 0.9230 0.9230 0.9230 0.9240 0.9240
1554.055000 0.9240 0.9240 0.9240 0.9240 0.9240
1558.661884 0.9240 0.9240 0.9240 0.9230 0.9200
1563.268769 0.9190 0.9180 0.9180 0.9170 0.9170
1567.875653 0.9150 0.9140 0.9080 0.9040 0.9020
1572.482538 0.9010 0.9010 0.9010 0.9000 0.9000
1577.089423 0.9000 0.9000 0.8990 0.8980 0.8980
1581.696307 0.8960 0.8950 0.8930 0.8920 0.8920
1586.303192 0.8920 0.8920 0.8930 0.8930 0.8940
1590.910077 0.8940 0.8920 0.8920 0.8920 0.8920
1595.516961 0.8920 0.8910 0.8900 0.8900 0.8900
1600.123846 0.8880 0.8870 0.8850 0.8830 0.8820
1604.730730 0.8820 0.8800 0.8780 0.8760 0.8750
1609.337615 0.8750 0.8720 0.8720 0.8710 0.8710
1613.944500 0.8700 0.8680 0.8640 0.8620 0.8600
1618.551384 0.8590 0.8590 0.8610 0.8630 0.8690
1623.158269 0.8710 0.8710 0.8720 0.8750 0.8750
1627.765153 0.8730 0.8720 0.8730 0.8780 0.8800
1632.372038 0.8850 0.8850 0.8850 0.8850 0.8860
1636.978923 0.8860 0.8860 0.8860 0.8860 0.8860
1641.585807 0.8850 0.8850 0.8790 0.8760 0.8750
1646.192692 0.8760 0.8780 0.8790 0.8800 0.8820
1650.799577 0.8830 0.8840 0.8860 0.8860 0.8850
1655.406461 0.8840 0.8830 0.8830 0.8830 0.8820
1660.013346 0.8820 0.8820 0.8820 0.8790 0.8770
1664.620230 0.8750 0.8710 0.8690 0.8670 0.8650
1669.227115 0.8640 0.8650 0.8680 0.8700 0.8720
1673.834000 0.8730 0.8770 0.8780 0.8800 0.8800
1678.440884 0.8820 0.8830 0.8840 0.8840 0.8850
1683.047769 0.8850 0.8850 0.8870 0.8870 0.8880
1687.654653 0.8900 0.8900 0.8900 0.8900 0.8900
1692.261538 0.8900 0.8900 0.8900 0.8900 0.8900
1696.868423 0.8900 0.8910 0.8910 0.8910 0.8920
1701.475307 0.8920 0.8920 0.8910 0.8900 0.8900
1706.082192 0.8900 0.8900 0.8900 0.8880 0.8880
1710.689076 0.8870 0.8860 0.8840 0.8820 0.8830
1715.295961 0.8840 0.8860 0.8860 0.8880 0.8900
1719.902846 0.8900 0.8910 0.8930 0.8940 0.8940
1724.509730 0.8920 0.8910 0.8900 0.8910 0.8920
1729.116615 0.8930 0.8930 0.8930 0.8920 0.8910
1733.723500 0.8920 0.8930 0.8930 0.8940 0.8940
1738.330384 0.8940 0.8930 0.8930 0.8920 0.8910
1742.937269 0.8900 0.8900 0.8900 0.8900 0.8900
1747.544153 0.8880 0.8870 0.8870 0.8830 0.8760
1752.151038 0.8730 0.8720 0.8710 0.8690 0.8670
1756.757923 0.8620 0.8610 0.8610 0.8630 0.8680
1761.364807 0.8760 0.8820 0.8860 0.8860 0.8830
1765.971692 0.8830 0.8870 0.8900 0.8900 0.8900
1770.578576 0.8880 0.8860 0.8850 0.8840 0.8800
1775.185461 0.8770 0.8770 0.8770 0.8760 0.8760
1779.792346 0.8760 0.8760 0.8760 0.8760 0.8750
1784.399230 0.8750 0.8730 0.8720 0.8700 0.8640
1789.006115 0.8600 0.8600 0.8590 0.8540 0.8530
1793.613000 0.8520 0.8510 0.8470 0.8430 0.8410
1798.219884 0.8410 0.8380 0.8320 0.8240 0.8160
1802.826769 0.8060 0.7980 0.7910 0.7740 0.7570
1807.433653 0.7420 0.7151 0.6931 0.6701 0.6252
1812.040538 0.6049 0.5640 0.5240 0.5060 0.5060
1816.647423 0.5080 0.5230 0.5410 0.5709 0.5840
1821.254307 0.6501 0.6880 0.7170 0.7420 0.7680
1825.861192 0.7900 0.7970 0.8100 0.8230 0.8300
1830.468076 0.8410 0.8540 0.8620 0.8690 0.8700
1835.074961 0.8710 0.8730 0.8750 0.8760 0.8780
1839.681846 0.8790 0.8820 0.8830 0.8840 0.8840
1844.288730 0.8850 0.8860 0.8860 0.8860 0.8860
1848.895615 0.8860 0.8870 0.8870 0.8900 0.8900
1853.502500 0.8900 0.8900 0.8900 0.8900 0.8900
1858.109384 0.8900 0.8900 0.8900 0.8880 0.8880
1862.716269 0.8880 0.8880 0.8860 0.8860 0.8870
1867.323153 0.8880 0.8900 0.8900 0.8900 0.8900
1871.930038 0.8900 0.8900 0.8880 0.8870 0.8870
1876.536923 0.8870 0.8870 0.8880 0.8880 0.8900
1881.143807 0.8900 0.8900 0.8900 0.8900 0.8870
1885.750692 0.8870 0.8870 0.8880 0.8900 0.8920
1890.357576 0.8930 0.8950 0.8950 0.8940 0.8940
1894.964461 0.8940 0.8940 0.8950 0.8980 0.8980
1899.571346 0.8960 0.8920 0.8900 0.8900 0.8900
1904.178230 0.8900 0.8910 0.8910 0.8910 0.8910
1908.785115 0.8920 0.8920 0.8930 0.8930 0.8920
1913.392000 0.8920 0.8910 0.8900 0.8900 0.8870
1917.998884 0.8880 0.8910 0.8910 0.8920 0.8920
1922.605769 0.8910 0.8900 0.8900 0.8880 0.8880
1927.212653 0.8880 0.8880 0.8870 0.8870 0.8860
1931.819538 0.8840 0.8820 0.8800 0.8780 0.8770
1936.426423 0.8760 0.8720 0.8710 0.8690 0.8680
1941.033307 0.8650 0.8630 0.8600 0.8560 0.8530
1945.640192 0.8490 0.8440 0.8390 0.8310 0.8210
1950.247076 0.8090 0.7940 0.7780 0.7610 0.7420
1954.853961 0.7210 0.6831 0.6581 0.6391 0.6181
1959.460846 0.6050 0.6030 0.6040 0.6250 0.6510
1964.067730 0.6700 0.6930 0.7220 0.7509 0.7749
1968.674615 0.7980 0.8130 0.8200 0.8400 0.8530
1973.281499 0.8550 0.8610 0.8670 0.8700 0.8760
1977.888384 0.8780 0.8790 0.8790 0.8800 0.8820
1982.495269 0.8830 0.8830 0.8830 0.8830 0.8830
1987.102153 0.8830 0.8830 0.8830 0.8820 0.8800
1991.709038 0.8800 0.8790 0.8790 0.8780 0.8770
1996.315923 0.8770 0.8760 0.8730 0.8650 0.8610
2000.922807 0.8565 0.8520 0.8505 0.8490 0.8505
2005.529692 0.8520 0.8540 0.8560 0.8600 0.8640
2010.136576 0.8660 0.8680 0.8685 0.8690 0.8690
2014.743461 0.8690 0.8690 0.8690 0.8690 0.8690
2019.350346 0.8690 0.8690 0.8695 0.8700 0.8705
2023.957230 0.8710 0.8710 0.8710 0.8710 0.8710
2028.564115 0.8710 0.8710 0.8710 0.8710 0.8715
2033.170999 0.8720 0.8725 0.8730 0.8725 0.8720
2037.777884 0.8715 0.8710 0.8710 0.8710 0.8705
2042.384769 0.8700 0.8705 0.8710 0.8710 0.8710
2046.991653 0.8715 0.8721 0.8736 0.8750 0.8755
2051.598538 0.8761 0.8771 0.8781 0.8801 0.8819
2056.205423 0.8804 0.8789 0.8779 0.8770 0.8765
2060.812307 0.8760 0.8755 0.8749 0.8734 0.8720
2065.419192 0.8720 0.8720 0.8725 0.8730 0.8730
2070.026076 0.8730 0.8730 0.8730 0.8725 0.8720
2074.632961 0.8715 0.8710 0.8710 0.8710 0.8710
2079.239846 0.8710 0.8710 0.8710 0.8710 0.8710
2083.846730 0.8710 0.8710 0.8710 0.8710 0.8710
2088.453615 0.8710 0.8710 0.8710 0.8710 0.8710
2093.060499 0.8710 0.8710 0.8710 0.8710 0.8710
2097.667384 0.8710 0.8710 0.8711 0.8716 0.8721
2102.274269 0.8726 0.8733 0.8753 0.8771 0.8776
2106.881153 0.8780 0.8780 0.8779 0.8769 0.8757
2111.488038 0.8737 0.8719 0.8714 0.8711 0.8716
2116.094923 0.8722 0.8737 0.8750 0.8750 0.8750
2120.701807 0.8750 0.8750 0.8750 0.8748 0.8738
2125.308692 0.8729 0.8724 0.8720 0.8720 0.8720
2129.915576 0.8720 0.8720 0.8720 0.8721 0.8726
2134.522461 0.8730 0.8730 0.8730 0.8730 0.8728
2139.129346 0.8718 0.8710 0.8710 0.8709 0.8704
2143.736230 0.8700 0.8700 0.8700 0.8700 0.8700
2148.343115 0.8700 0.8701 0.8706 0.8710 0.8710
2152.949999 0.8710 0.8710 0.8711 0.8716 0.8721
2157.556884 0.8726 0.8729 0.8724 0.8720 0.8720
2162.163769 0.8720 0.8720 0.8719 0.8714 0.8711
2166.770653 0.8716 0.8719 0.8714 0.8709 0.8704
2171.377538 0.8700 0.8700 0.8701 0.8706 0.8710
2175.984423 0.8710 0.8709 0.8704 0.8700 0.8700
2180.591307 0.8700 0.8700 0.8701 0.8706 0.8710
2185.198192 0.8710 0.8710 0.8710 0.8710 0.8710
2189.805076 0.8711 0.8716 0.8720 0.8720 0.8720
2194.411961 0.8720 0.8719 0.8714 0.8708 0.8698
2199.018846 0.8685 0.8665 0.8644 0.8618 0.8589
2203.625730 0.8549 0.8502 0.8437 0.8387 0.8377
2208.232615 0.8370 0.8370 0.8389 0.8459 0.8518
2212.839499 0.8548 0.8570 0.8570 0.8585 0.8640
2217.446384 0.8681 0.8686 0.8691 0.8696 0.8700
2222.053269 0.8700 0.8700 0.8700 0.8700 0.8700
2226.660153 0.8701 0.8706 0.8711 0.8716 0.8724
2231.267038 0.8739 0.8753 0.8763 0.8773 0.8783
2235.873922 0.8791 0.8797 0.8800 0.8800 0.8803
2240.480807 0.8813 0.8820 0.8820 0.8820 0.8820
2245.087692 0.8817 0.8807 0.8800 0.8800 0.8800
2249.694576 0.8800 0.8803 0.8813 0.8822 0.8827
2254.301461 0.8830 0.8830 0.8828 0.8823 0.8811
2258.908346 0.8786 0.8767 0.8757 0.8747 0.8737
2263.515230 0.8735 0.8750 0.8762 0.8767 0.8772
2268.122115 0.8777 0.8782 0.8787 0.8790 0.8790
2272.728999 0.8790 0.8790 0.8792 0.8797 0.8804
2277.335884 0.8814 0.8816 0.8806 0.8800 0.8800
2281.942769 0.8798 0.8793 0.8788 0.8783 0.8778
2286.549653 0.8773 0.8770 0.8770 0.8770 0.8770
2291.156538 0.8770 0.8770 0.8770 0.8770 0.8770
2295.763422 0.8770 0.8770 0.8770 0.8772 0.8777
2300.370307 0.8780 0.8780 0.8778 0.8773 0.8760
2304.977192 0.8735 0.8716 0.8706 0.8690 0.8665
2309.584076 0.8646 0.8636 0.8622 0.8602 0.8580
2314.190961 0.8555 0.8525 0.8490 0.8455 0.8420
2318.797846 0.8381 0.8336 0.8308 0.8303 0.8304
2323.404730 0.8314 0.8345 0.8405 0.8455 0.8490
2328.011615 0.8529 0.8574 0.8617 0.8658 0.8687
2332.618499 0.8702 0.8712 0.8717 0.8727 0.8742
2337.225384 0.8752 0.8757 0.8762 0.8767 0.8772
2341.832269 0.8777 0.8780 0.8780 0.8776 0.8766
2346.439153 0.8760 0.8760 0.8760 0.8760 0.8753
2351.046038 0.8738 0.8725 0.8715 0.8708 0.8703
2355.652922 0.8700 0.8700 0.8700 0.8700 0.8700
2360.259807 0.8700 0.8698 0.8693 0.8692 0.8697
2364.866692 0.8700 0.8700 0.8698 0.8693 0.8688
2369.473576 0.8683 0.8678 0.8673 0.8665 0.8655
2374.080461 0.8650 0.8650 0.8648 0.8643 0.8640
2378.687346 0.8640 0.8640 0.8640 0.8647 0.8662
2383.294230 0.8670 0.8670 0.8675 0.8685 0.8690
2387.901115 0.8690 0.8693 0.8698 0.8700 0.8700
2392.507999 0.8703 0.8708 0.8710 0.8710 0.8710
2397.114884 0.8710 0.8710 0.8710 0.8710 0.8710
2401.721769 0.8710 0.8710 0.8710 0.8710 0.8710
2406.328653 0.8710 0.8710 0.8710 0.8710 0.8710
2410.935538 0.8710 0.8710 0.8713 0.8718 0.8720
2415.542422 0.8720 0.8720 0.8720 0.8723 0.8728
2420.149307 0.8735 0.8745 0.8756 0.8766 0.8770
2424.756192 0.8770 0.8767 0.8762 0.8743 0.8713
2429.363076 0.8683 0.8653 0.8643 0.8648 0.8661
2433.969961 0.8681 0.8701 0.8721 0.8739 0.8754
2438.576846 0.8763 0.8768 0.8767 0.8762 0.8745
2443.183730 0.8720 0.8707 0.8702 0.8700 0.8700
2447.790615 0.8703 0.8708 0.8710 0.8710 0.8713
2452.397499 0.8718 0.8723 0.8728 0.8730 0.8730
2457.004384 0.8724 0.8714 0.8710 0.8710 0.8732
2461.611269 0.8767 0.8780 0.8780 0.8758 0.8723
2466.218153 0.8707 0.8702 0.8697 0.8692 0.8690
2470.825038 0.8690 0.8687 0.8682 0.8680 0.8680
2475.431922 0.8680 0.8680 0.8680 0.8680 0.8680
2480.038807 0.8680 0.8680 0.8680 0.8686 0.8696
2484.645692 0.8703 0.8708 0.8710 0.8710 0.8710
2489.252576 0.8710 0.8707 0.8702 0.8697 0.8692
2493.859461 0.8690 0.8690 0.8690 0.8690 0.8687
2498.466345 0.8682 0.8680 0.8680 0.8680 0.8680
2503.073230 0.8677 0.8672 0.8670 0.8670 0.8680
2507.680115 0.8695 0.8703 0.8708 0.8703 0.8693
2512.286999 0.8690 0.8690 0.8690 0.8690 0.8690
2516.893884 0.8690 0.8687 0.8682 0.8683 0.8688
2521.500769 0.8693 0.8698 0.8700 0.8700 0.8697
2526.107653 0.8692 0.8690 0.8690 0.8690 0.8690
2530.714538 0.8687 0.8682 0.8680 0.8680 0.8680
2535.321422 0.8680 0.8684 0.8689 0.8694 0.8699
2539.928307 0.8700 0.8700 0.8696 0.8691 0.8686
2544.535192 0.8681 0.8680 0.8680 0.8676 0.8671
2549.142076 0.8670 0.8670 0.8670 0.8670 0.8674
2553.748961 0.8679 0.8680 0.8680 0.8684 0.8689
2558.355845 0.8690 0.8690 0.8690 0.8690 0.8686
2562.962730 0.8681 0.8676 0.8671 0.8670 0.8670
2567.569615 0.8670 0.8670 0.8674 0.8679 0.8684
2572.176499 0.8689 0.8690 0.8690 0.8690 0.8690
2576.783384 0.8690 0.8690 0.8690 0.8690 0.8690
2581.390269 0.8690 0.8682 0.8672 0.8659 0.8644
2585.997153 0.8629 0.8614 0.8602 0.8592 0.8578
2590.604038 0.8563 0.8548 0.8533 0.8522 0.8512
2595.210922 0.8514 0.8519 0.8528 0.8538 0.8544
2599.817807 0.8549 0.8554 0.8559 0.8564 0.8569
2604.424692 0.8578 0.8588 0.8594 0.8599 0.8600
2609.031576 0.8600 0.8596 0.8591 0.8570 0.8545
2613.638461 0.8540 0.8540 0.8552 0.8567 0.8582
2618.245345 0.8597 0.8604 0.8609 0.8618 0.8628
2622.852230 0.8638 0.8648 0.8650 0.8650 0.8650
2627.459115 0.8650 0.8658 0.8668 0.8670 0.8670
2632.065999 0.8670 0.8670 0.8662 0.8652 0.8650
2636.672884 0.8650 0.8642 0.8632 0.8626 0.8621
2641.279769 0.8616 0.8611 0.8606 0.8601 0.8600
2645.886653 0.8600 0.8587 0.8572 0.8570 0.8570
2650.493538 0.8566 0.8561 0.8517 0.8467 0.8460
2655.100422 0.8460 0.8486 0.8516 0.8542 0.8567
2659.707307 0.8587 0.8607 0.8623 0.8638 0.8653
2664.314192 0.8668 0.8679 0.8689 0.8690 0.8690
2668.921076 0.8690 0.8690 0.8690 0.8690 0.8690
2673.527961 0.8690 0.8686 0.8681 0.8684 0.8689
2678.134845 0.8699 0.8709 0.8710 0.8710 0.8701
2682.741730 0.8691 0.8690 0.8690 0.8685 0.8680
2687.348615 0.8685 0.8690 0.8690 0.8690 0.8690
2691.955499 0.8690 0.8690 0.8690 0.8690 0.8690
2696.562384 0.8690 0.8690 0.8690 0.8690 0.8690
2701.169269 0.8690 0.8690 0.8690 0.8690 0.8690
2705.776153 0.8690 0.8690 0.8690 0.8690 0.8690
2710.383038 0.8690 0.8681 0.8671 0.8651 0.8631
2714.989922 0.8625 0.8620 0.8625 0.8630 0.8630
2719.596807 0.8630 0.8630 0.8630 0.8635 0.8640
2724.203692 0.8635 0.8630 0.8630 0.8630 0.8620
2728.810576 0.8610 0.8605 0.8600 0.8600 0.8600
2733.417461 0.8605 0.8610 0.8615 0.8620 0.8620
2738.024345 0.8620 0.8625 0.8630 0.8640 0.8650
2742.631230 0.8650 0.8650 0.8645 0.8640 0.8640
2747.238115 0.8640 0.8640 0.8640 0.8640 0.8640
2751.844999 0.8635 0.8630 0.8625 0.8620 0.8605
2756.451884 0.8590 0.8590 0.8590 0.8620 0.8650
2761.058768 0.8660 0.8670 0.8660 0.8650 0.8645
2765.665653 0.8640 0.8640 0.8640 0.8620 0.8600
2770.272538 0.8595 0.8590 0.8590 0.8591 0.8611
2774.879422 0.8630 0.8630 0.8629 0.8614 0.8600
2779.486307 0.8600 0.8600 0.8595 0.8590 0.8590
2784.093192 0.8590 0.8600 0.8610 0.8610 0.8610
2788.700076 0.8605 0.8600 0.8600 0.8599 0.8584
2793.306961 0.8570 0.8570 0.8571 0.8586 0.8600
2797.913845 0.8595 0.8589 0.8579 0.8570 0.8565
2802.520730 0.8560 0.8555 0.8550 0.8545 0.8539
2807.127615 0.8529 0.8519 0.8504 0.8488 0.8468
2811.734499 0.8450 0.8445 0.8440 0.8435 0.8427
2816.341384 0.8392 0.8358 0.8338 0.8320 0.8315
2820.948268 0.8313 0.8343 0.8374 0.8424 0.8471
2825.555153 0.8481 0.8492 0.8512 0.8531 0.8536
2830.162038 0.8540 0.8540 0.8539 0.8534 0.8529
2834.768922 0.8524 0.8520 0.8520 0.8518 0.8503
2839.375807 0.8492 0.8507 0.8518 0.8503 0.8489
2843.982692 0.8479 0.8470 0.8470 0.8471 0.8481
2848.589576 0.8491 0.8501 0.8510 0.8510 0.8507
2853.196461 0.8487 0.8470 0.8470 0.8470 0.8470
2857.803345 0.8470 0.8470 0.8473 0.8498 0.8520
2862.410230 0.8520 0.8518 0.8503 0.8488 0.8478
2867.017115 0.8469 0.8464 0.8459 0.8454 0.8450
2871.623999 0.8450 0.8450 0.8450 0.8449 0.8444
2876.230884 0.8438 0.8423 0.8403 0.8358 0.8316
2880.837768 0.8291 0.8266 0.8241 0.8211 0.8161
2885.444653 0.8102 0.8002 0.7920 0.7920 0.7940
2890.051538 0.8050 0.8143 0.8158 0.8176 0.8211
2894.658422 0.8248 0.8293 0.8333 0.8348 0.8360
2899.265307 0.8360 0.8355 0.8330 0.8303 0.8268
2903.872192 0.8238 0.8228 0.8221 0.8226 0.8235
2908.479076 0.8260 0.8283 0.8298 0.8312 0.8322
2913.085961 0.8333 0.8348 0.8360 0.8360 0.8360
2917.692845 0.8360 0.8360 0.8360 0.8359 0.8354
2922.299730 0.8348 0.8338 0.8329 0.8324 0.8319
2926.906615 0.8314 0.8310 0.8310 0.8310 0.8310
2931.513499 0.8310 0.8310 0.8310 0.8310 0.8310
2936.120384 0.8310 0.8310 0.8310 0.8310 0.8310
2940.727268 0.8309 0.8304 0.8296 0.8281 0.8267
2945.334153 0.8257 0.8249 0.8244 0.8241 0.8246
2949.941038 0.8250 0.8250 0.8253 0.8263 0.8270
2954.547922 0.8270 0.8270 0.8270 0.8270 0.8270
2959.154807 0.8266 0.8251 0.8237 0.8227 0.8219
2963.761692 0.8214 0.8209 0.8204 0.8200 0.8200
2968.368576 0.8192 0.8162 0.8129 0.8089 0.8060
2972.975461 0.8060 0.8066 0.8086 0.8100 0.8100
2977.582345 0.8100 0.8100 0.8098 0.8093 0.8085
2982.189230 0.8070 0.8051 0.8021 0.7991 0.7961
2986.796115 0.7938 0.7933 0.7928 0.7923 0.7914
2991.402999 0.7894 0.7875 0.7860 0.7845 0.7830
2996.009884 0.7813 0.7793 0.7772 0.7747 0.7717
3000.616768 0.7677 0.7637 0.7597 0.7552 0.7497
3005.223653 0.7443 0.7393 0.7343 0.7293 0.7242
3009.830538 0.7187 0.7133 0.7083 0.7011 0.6901
3014.437422 0.6804 0.6729 0.6669 0.6639 0.6592
3019.044307 0.6512 0.6419 0.6304 0.6170 0.6000
3023.651191 0.5817 0.5612 0.5389 0.5134 0.4890
3028.258076 0.4665 0.4448 0.4246 0.4030 0.3789
3032.864961 0.3514 0.3179 0.2823 0.2433 0.1910
3037.471845 0.1170 0.0710 0.0710 0.1242 0.2648
3042.078730 0.3596 0.3796 0.3994 0.4189 0.4386
3046.685615 0.4586 0.4785 0.4982 0.5180 0.5380
3051.292499 0.5552 0.5682 0.5897 0.6237 0.6446
3055.899384 0.6461 0.6470 0.6470 0.6472 0.6477
3060.506268 0.6478 0.6473 0.6430 0.6330 0.6258
3065.113153 0.6228 0.6171 0.6075 0.5901 0.5621
3069.720038 0.5315 0.4975 0.4569 0.4074 0.3536
3074.326922 0.2941 0.2600 0.2600 0.3143 0.4414
3078.933807 0.5226 0.5426 0.5540 0.5540 0.5531
3083.540691 0.5511 0.5426 0.5254 0.5041 0.4776
3088.147576 0.4520 0.4275 0.3953 0.3538 0.2949
3092.754461 0.2149 0.1710 0.1710 0.2156 0.3141
3097.361345 0.3682 0.3687 0.3844 0.4184 0.4579
3101.968230 0.5039 0.5671 0.6510 0.6979 0.7039
3106.575115 0.7101 0.7166 0.7271 0.7422 0.7548
3111.181999 0.7648 0.7736 0.7811 0.7869 0.7909
3115.788884 0.7940 0.7960 0.7970 0.7970 0.7987
3120.395768 0.8022 0.8062 0.8107 0.8160 0.8220
3125.002653 0.8283 0.8348 0.8388 0.8403 0.8425
3129.609538 0.8455 0.8480 0.8500 0.8515 0.8525
3134.216422 0.8533 0.8538 0.8540 0.8540 0.8543
3138.823307 0.8548 0.8553 0.8558 0.8560 0.8560
3143.430191 0.8563 0.8568 0.8575 0.8585 0.8593
3148.037076 0.8598 0.8600 0.8600 0.8600 0.8600
3152.643961 0.8603 0.8608 0.8613 0.8618 0.8623
3157.250845 0.8628 0.8633 0.8638 0.8640 0.8640
3161.857730 0.8643 0.8648 0.8655 0.8665 0.8673
3166.464615 0.8678 0.8683 0.8688 0.8690 0.8690
3171.071499 0.8690 0.8690 0.8693 0.8698 0.8703
3175.678384 0.8708 0.8710 0.8710 0.8710 0.8710
3180.285268 0.8713 0.8718 0.8720 0.8720 0.8723
3184.892153 0.8728 0.8727 0.8722 0.8723 0.8728
3189.499038 0.8736 0.8746 0.8744 0.8734 0.8730
3194.105922 0.8730 0.8730 0.8730 0.8736 0.8746
3198.712807 0.8744 0.8734 0.8736 0.8746 0.8744
3203.319691 0.8734 0.8736 0.8746 0.8750 0.8750
3207.926576 0.8753 0.8758 0.8763 0.8768 0.8764
3212.533461 0.8754 0.8750 0.8750 0.8750 0.8750
3217.140345 0.8750 0.8750 0.8753 0.8758 0.8760
3221.747230 0.8760 0.8760 0.8760 0.8760 0.8760
3226.354115 0.8760 0.8760 0.8760 0.8760 0.8763
3230.960999 0.8768 0.8773 0.8778 0.8774 0.8764
3235.567884 0.8757 0.8752 0.8750 0.8750 0.8756
3240.174768 0.8766 0.8773 0.8778 0.8780 0.8780
3244.781653 0.8780 0.8780 0.8780 0.8780 0.8780
3249.388538 0.8780 0.8780 0.8780 0.8780 0.8780
3253.995422 0.8780 0.8780 0.8773 0.8763 0.8760
3258.602307 0.8760 0.8763 0.8768 0.8777 0.8787
3263.209191 0.8790 0.8790 0.8790 0.8790 0.8790
3267.816076 0.8790 0.8790 0.8790 0.8790 0.8790
3272.422961 0.8790 0.8790 0.8790 0.8790 0.8790
3277.029845 0.8790 0.8790 0.8790 0.8790 0.8790
3281.636730 0.8793 0.8798 0.8800 0.8800 0.8800
3286.243614 0.8800 0.8800 0.8800 0.8800 0.8800
3290.850499 0.8796 0.8791 0.8790 0.8790 0.8790
3295.457384 0.8790 0.8794 0.8799 0.8796 0.8791
3300.064268 0.8790 0.8790 0.8786 0.8781 0.8784
3304.671153 0.8789 0.8790 0.8790 0.8790 0.8790
3309.278038 0.8794 0.8799 0.8800 0.8800 0.8800
3313.884922 0.8800 0.8800 0.8800 0.8793 0.8783
3318.491807 0.8780 0.8780 0.8799 0.8824 0.8830
3323.098691 0.8830 0.8804 0.8768 0.8760 0.8760
3327.705576 0.8787 0.8822 0.8838 0.8848 0.8842
3332.312461 0.8832 0.8815 0.8795 0.8786 0.8781
3336.919345 0.8784 0.8789 0.8790 0.8790 0.8805
3341.526230 0.8825 0.8830 0.8830 0.8810 0.8785
3346.133114 0.8776 0.8771 0.8782 0.8797 0.8796
3350.739999 0.8791 0.8790 0.8790 0.8790 0.8790
3355.346884 0.8790 0.8790 0.8790 0.8790 0.8794
3359.953768 0.8799 0.8808 0.8818 0.8820 0.8820
3364.560653 0.8812 0.8802 0.8800 0.8800 0.8800
3369.167538 0.8800 0.8808 0.8818 0.8820 0.8820
3373.774422 0.8812 0.8802 0.8800 0.8800 0.8792
3378.381307 0.8782 0.8784 0.8789 0.8790 0.8790
3382.988191 0.8790 0.8790 0.8790 0.8790 0.8786
3387.595076 0.8781 0.8780 0.8780 0.8780 0.8780
3392.201961 0.8776 0.8771 0.8770 0.8770 0.8774
3396.808845 0.8779 0.8784 0.8789 0.8781 0.8771
3401.415730 0.8770 0.8770 0.8770 0.8770 0.8774
3406.022614 0.8779 0.8780 0.8780 0.8780 0.8780
3410.629499 0.8780 0.8780 0.8784 0.8789 0.8790
3415.236384 0.8790 0.8794 0.8799 0.8800 0.8800
3419.843268 0.8800 0.8800 0.8796 0.8791 0.8790
3424.450153 0.8790 0.8786 0.8781 0.8784 0.8789
3429.057038 0.8786 0.8781 0.8780 0.8780 0.8780
3433.663922 0.8780 0.8775 0.8770 0.8770 0.8770
3438.270807 0.8770 0.8770 0.8770 0.8770 0.8770
3442.877691 0.8770 0.8770 0.8770 0.8765 0.8760
3447.484576 0.8760 0.8760 0.8760 0.8760 0.8760
3452.091461 0.8760 0.8760 0.8760 0.8760 0.8760
3456.698345 0.8765 0.8770 0.8779 0.8789 0.8795
3461.305230 0.8800 0.8786 0.8771 0.8770 0.8770
3465.912114 0.8770 0.8770 0.8775 0.8780 0.8804
3470.518999 0.8829 0.8835 0.8840 0.8835 0.8830
3475.125884 0.8830 0.8830 0.8830 0.8830 0.8830
3479.732768 0.8830 0.8840 0.8850 0.8850 0.8850
3484.339653 0.8845 0.8840 0.8840 0.8840 0.8840
3488.946538 0.8840 0.8835 0.8830 0.8830 0.8830
3493.553422 0.8830 0.8830 0.8830 0.8830 0.8830
3498.160307 0.8830 0.8830 0.8830 0.8835 0.8840
3502.767191 0.8835 0.8830 0.8830 0.8830 0.8830
3507.374076 0.8830 0.8830 0.8830 0.8830 0.8830
3511.980961 0.8825 0.8820 0.8820 0.8820 0.8820
3516.587845 0.8820 0.8810 0.8800 0.8810 0.8820
3521.194730 0.8825 0.8830 0.8845 0.8860 0.8865
3525.801614 0.8870 0.8875 0.8880 0.8880 0.8880
3530.408499 0.8890 0.8900 0.8900 0.8900 0.8900
3535.015384 0.8898 0.8858 0.8820 0.8820 0.8821
3539.622268 0.8841 0.8860 0.8870 0.8880 0.8880
3544.229153 0.8880 0.8891 0.8900 0.8900 0.8899
3548.836037 0.8884 0.8870 0.8870 0.8870 0.8865
3553.442922 0.8860 0.8860 0.8860 0.8855 0.8850
3558.049807 0.8845 0.8840 0.8845 0.8851 0.8861
3562.656691 0.8871 0.8886 0.8901 0.8916 0.8930
3567.263576 0.8930 0.8929 0.8914 0.8899 0.8889
3571.870461 0.8879 0.8869 0.8860 0.8860 0.8860
3576.477345 0.8855 0.8850 0.8850 0.8850 0.8850
3581.084230 0.8850 0.8856 0.8861 0.8866 0.8873
3585.691114 0.8898 0.8920 0.8920 0.8919 0.8909
3590.297999 0.8900 0.8900 0.8899 0.8889 0.8879
3594.904884 0.8874 0.8869 0.8859 0.8849 0.8844
3599.511768 0.8840 0.8840 0.8839 0.8834 0.8829
3604.118653 0.8824 0.8820 0.8820 0.8819 0.8809
3608.725537 0.8799 0.8794 0.8790 0.8790 0.8790
3613.332422 0.8790 0.8790 0.8790 0.8790 0.8790
3617.939307 0.8791 0.8796 0.8802 0.8817 0.8832
3622.546191 0.8847 0.8861 0.8866 0.8873 0.8893
3627.153076 0.8916 0.8951 0.8980 0.8980 0.8976
3631.759961 0.8951 0.8924 0.8889 0.8853 0.8813
3636.366845 0.8775 0.8745 0.8718 0.8708 0.8692
3640.973730 0.8652 0.8615 0.8590 0.8570 0.8570
3645.580614 0.8582 0.8647 0.8709 0.8759 0.8804
3650.187499 0.8824 0.8842 0.8852 0.8862 0.8872
3654.794384 0.8880 0.8880 0.8880 0.8880 0.8879
3659.401268 0.8874 0.8869 0.8864 0.8857 0.8842
3664.008153 0.8827 0.8812 0.8802 0.8812 0.8832
3668.615037 0.8887 0.8938 0.8973 0.9002 0.9012
3673.221922 0.9022 0.9032 0.9042 0.9052 0.9058
3677.828807 0.9048 0.9021 0.8941 0.8868 0.8818
3682.435691 0.8776 0.8761 0.8750 0.8750 0.8752
3687.042576 0.8762 0.8770 0.8770 0.8769 0.8764
3691.649461 0.8759 0.8754 0.8737 0.8687 0.8650
3696.256345 0.8650 0.8653 0.8663 0.8675 0.8695
3700.863230 0.8715 0.8735 0.8754 0.8769 0.8781
3705.470114 0.8786 0.8795 0.8815 0.8837 0.8862
3710.076999 0.8899 0.8970 0.9021 0.9026 0.9023
3714.683884 0.8998 0.8969 0.8929 0.8894 0.8874
3719.290768 0.8859 0.8854 0.8853 0.8863 0.8871
3723.897653 0.8876 0.8886 0.8906 0.8921 0.8926
3728.504537 0.8933 0.8943 0.8952 0.8957 0.8966
3733.111422 0.8986 0.9003 0.9013 0.9020 0.9020
3737.718307 0.9022 0.9027 0.9030 0.9030 0.9032
3742.325191 0.9037 0.9040 0.9040 0.9040 0.9040
3746.932076 0.9038 0.9033 0.9030 0.9030 0.9028
3751.538961 0.9023 0.9017 0.9007 0.8997 0.8987
3756.145845 0.8975 0.8960 0.8947 0.8937 0.8927
3760.752730 0.8917 0.8910 0.8910 0.8908 0.8903
3765.359614 0.8900 0.8900 0.8900 0.8900 0.8900
3769.966499 0.8900 0.8900 0.8900 0.8900 0.8900
3774.573384 0.8900 0.8900 0.8900 0.8900 0.8896
3779.180268 0.8886 0.8880 0.8880 0.8880 0.8880
3783.787153 0.8878 0.8873 0.8870 0.8870 0.8868
3788.394037 0.8863 0.8860 0.8860 0.8860 0.8860
3793.000922 0.8862 0.8867
##END=
