##TITLE=CARBON MONOXIDE
##JCAMP-DX=4.24
##DATA TYPE=INFRARED SPECTRUM
##CLASS=COBLENTZ
##ORIGIN=DOW CHEMICAL COMPANY
##OWNER=COBLENTZ SOCIETY
Collection (C) 2007 copyright by the U.S. Secretary of Commerce
on behalf of the United States of America. All rights reserved.
##DATE=1964
##CAS REGISTRY NO=630-08-0
##MOLFORM=CO
##SOURCE REFERENCE=COBLENTZ NO. 8755
##$NIST SOURCE=COBLENTZ
##$NIST IMAGE=cob8755
##SPECTROMETER/DATA SYSTEM=DOW KBr FOREPRISM
##INSTRUMENT PARAMETERS=GRATING CHANGED AT 5.0, 7.5, 15.0 MICRON
##STATE=GAS (400 mmHg DILUTED TO A TOTAL PRESSURE OF 600 mmHg WITH N2)
##PATH LENGTH=10 CM
$$ CONGESTED ROTATIONAL LINES IN THE 2000-2250 CM^-^1 REGION ARE SMOOTHENED
##SAMPLING PROCEDURE=TRANSMISSION
##RESOLUTION=4
##DATA PROCESSING=DIGITIZED BY NIST FROM HARD COPY (FROM TWO SEGMENTS)
##XUNITS=1/CM
##YUNITS=TRANSMITTANCE
##XFACTOR=1.000000
##YFACTOR=1
##DELTAX=0.936332
##FIRSTX=457.865
##LASTX=3803.38
##FIRSTY=0.961
##MAXX=3803.38
##MINX=457.865
##MAXY=1.021
##MINY=0.14603
##NPOINTS=3574
##XYDATA=(X++(Y..Y))
457.865000 0.9610 0.9610 0.9610 0.9610 0.9610
462.546661 0.9610 0.9610 0.9620 0.9620 0.9620
467.228323 0.9620 0.9620 0.9620 0.9620 0.9620
471.909984 0.9630 0.9630 0.9630 0.9630 0.9630
476.591646 0.9630 0.9620 0.9620 0.9620 0.9620
481.273307 0.9620 0.9620 0.9620 0.9620 0.9620
485.954969 0.9610 0.9610 0.9610 0.9610 0.9620
490.636630 0.9620 0.9620 0.9620 0.9620 0.9610
495.318292 0.9610 0.9610 0.9620 0.9620 0.9620
499.999953 0.9620 0.9620 0.9610 0.9610 0.9610
504.681615 0.9590 0.9590 0.9590 0.9590 0.9590
509.363276 0.9590 0.9590 0.9590 0.9580 0.9580
514.044938 0.9580 0.9580 0.9560 0.9560 0.9560
518.726599 0.9560 0.9560 0.9560 0.9560 0.9580
523.408261 0.9580 0.9580 0.9580 0.9580 0.9560
528.089922 0.9560 0.9560 0.9560 0.9560 0.9560
532.771584 0.9560 0.9560 0.9560 0.9560 0.9550
537.453245 0.9550 0.9550 0.9550 0.9550 0.9550
542.134907 0.9560 0.9560 0.9550 0.9550 0.9550
546.816568 0.9550 0.9550 0.9560 0.9560 0.9560
551.498229 0.9580 0.9560 0.9560 0.9590 0.9590
556.179891 0.9590 0.9590 0.9610 0.9610 0.9610
560.861552 0.9610 0.9610 0.9620 0.9620 0.9620
565.543214 0.9630 0.9650 0.9650 0.9650 0.9650
570.224875 0.9650 0.9650 0.9660 0.9660 0.9660
574.906537 0.9660 0.9660 0.9660 0.9680 0.9680
579.588198 0.9660 0.9680 0.9690 0.9690 0.9720
584.269860 0.9720 0.9740 0.9740 0.9710 0.9710
588.951521 0.9710 0.9710 0.9710 0.9710 0.9720
593.633183 0.9720 0.9740 0.9740 0.9740 0.9740
598.314844 0.9740 0.9740 0.9750 0.9750 0.9760
602.996506 0.9780 0.9760 0.9760 0.9760 0.9760
607.678167 0.9760 0.9760 0.9760 0.9760 0.9760
612.359829 0.9780 0.9780 0.9780 0.9780 0.9780
617.041490 0.9780 0.9780 0.9780 0.9780 0.9780
621.723152 0.9790 0.9810 0.9810 0.9810 0.9810
626.404813 0.9810 0.9810 0.9820 0.9820 0.9840
631.086474 0.9840 0.9840 0.9840 0.9820 0.9820
635.768136 0.9820 0.9820 0.9820 0.9840 0.9840
640.449797 0.9840 0.9850 0.9850 0.9840 0.9840
645.131459 0.9840 0.9820 0.9820 0.9810 0.9810
649.813120 0.9810 0.9810 0.9820 0.9840 0.9840
654.494782 0.9840 0.9840 0.9820 0.9820 0.9820
659.176443 0.9840 0.9850 0.9850 0.9870 0.9870
663.858105 0.9850 0.9850 0.9840 0.9790 0.9750
668.539766 0.9720 0.9720 0.9750 0.9760 0.9850
673.221428 0.9870 0.9870 0.9870 0.9870 0.9850
677.903089 0.9850 0.9850 0.9850 0.9850 0.9850
682.584751 0.9840 0.9850 0.9850 0.9870 0.9870
687.266412 0.9870 0.9870 0.9870 0.9870 0.9870
691.948074 0.9870 0.9870 0.9870 0.9870 0.9870
696.629735 0.9880 0.9880 0.9890 0.9890 0.9920
701.311397 0.9940 0.9940 0.9920 0.9920 0.9920
705.993058 0.9920 0.9920 0.9940 0.9940 0.9950
710.674720 0.9950 0.9970 0.9970 0.9970 0.9970
715.356381 0.9970 0.9970 0.9950 0.9950 0.9970
720.038042 0.9970 0.9970 0.9970 0.9970 0.9970
724.719704 0.9970 0.9970 0.9970 0.9980 0.9980
729.401365 0.9980 0.9980 0.9980 0.9980 0.9980
734.083027 0.9970 0.9970 0.9970 0.9950 0.9950
738.764688 0.9950 0.9950 0.9950 0.9950 0.9970
743.446350 0.9970 0.9970 0.9950 0.9950 0.9950
748.128011 0.9950 0.9970 0.9970 0.9970 0.9970
752.809673 0.9970 0.9970 0.9970 0.9970 0.9970
757.491334 0.9970 0.9970 0.9970 0.9970 0.9970
762.172996 0.9950 0.9950 0.9970 0.9970 0.9970
766.854657 0.9970 0.9970 0.9970 0.9970 0.9970
771.536319 0.9970 0.9970 0.9980 0.9970 0.9970
776.217980 0.9970 0.9970 0.9950 0.9950 0.9950
780.899642 0.9950 0.9950 0.9970 0.9970 0.9970
785.581303 0.9970 0.9970 0.9970 0.9950 0.9950
790.262965 0.9950 0.9970 0.9970 0.9970 0.9970
794.944626 0.9950 0.9950 0.9950 0.9950 0.9950
799.626287 0.9940 0.9940 0.9940 0.9940 0.9920
804.307949 0.9920 0.9920 0.9920 0.9910 0.9910
808.989610 0.9910 0.9910 0.9910 0.9910 0.9910
813.671272 0.9920 0.9920 0.9940 0.9940 0.9940
818.352933 0.9950 0.9950 0.9950 0.9950 0.9950
823.034595 0.9950 0.9950 0.9950 0.9950 0.9950
827.716256 0.9950 0.9950 0.9950 0.9950 0.9950
832.397918 0.9950 0.9950 0.9950 0.9950 0.9970
837.079579 0.9970 0.9950 0.9950 0.9970 0.9970
841.761241 0.9970 0.9970 0.9970 0.9970 0.9970
846.442902 0.9970 0.9970 0.9970 0.9970 0.9970
851.124564 0.9950 0.9950 0.9970 0.9970 0.9970
855.806225 0.9970 0.9970 0.9970 0.9970 0.9980
860.487887 0.9980 0.9970 0.9970 0.9970 0.9970
865.169548 0.9970 0.9970 0.9970 0.9980 0.9980
869.851210 0.9980 0.9980 0.9980 0.9970 0.9970
874.532871 0.9970 0.9970 0.9970 0.9970 0.9970
879.214533 0.9970 0.9970 0.9970 0.9970 0.9980
883.896194 0.9980 0.9980 0.9980 0.9980 0.9980
888.577855 0.9980 0.9970 0.9970 0.9950 0.9950
893.259517 0.9970 0.9950 0.9950 0.9950 0.9950
897.941178 0.9950 0.9970 0.9970 0.9970 0.9980
902.622840 0.9980 0.9970 0.9970 0.9980 0.9980
907.304501 0.9980 1.0000 1.0000 1.0000 1.0000
911.986163 0.9980 0.9980 0.9980 1.0000 1.0000
916.667824 1.0010 1.0010 1.0010 1.0000 1.0000
921.349486 1.0010 1.0010 1.0010 1.0010 1.0010
926.031147 1.0010 1.0010 1.0010 1.0020 1.0020
930.712809 1.0020 1.0020 1.0020 1.0020 1.0020
935.394470 1.0040 1.0040 1.0040 1.0040 1.0040
940.076132 1.0050 1.0050 1.0050 1.0070 1.0070
944.757793 1.0050 1.0040 1.0040 1.0040 1.0040
949.439455 1.0040 1.0040 1.0040 1.0040 1.0040
954.121116 1.0040 1.0040 1.0040 1.0040 1.0040
958.802778 1.0040 1.0040 1.0040 1.0040 1.0040
963.484439 1.0040 1.0040 1.0050 1.0050 1.0050
968.166101 1.0050 1.0050 1.0040 1.0040 1.0050
972.847762 1.0050 1.0050 1.0050 1.0070 1.0070
977.529423 1.0080 1.0080 1.0080 1.0080 1.0080
982.211085 1.0080 1.0080 1.0080 1.0080 1.0080
986.892746 1.0080 1.0080 1.0080 1.0080 1.0080
991.574408 1.0080 1.0080 1.0080 1.0080 1.0070
996.256069 1.0070 1.0070 1.0070 1.0080 1.0080
1000.937731 1.0100 1.0080 1.0080 1.0080 1.0080
1005.619392 1.0080 1.0080 1.0080 1.0080 1.0080
1010.301054 1.0080 1.0080 1.0080 1.0080 1.0100
1014.982715 1.0100 1.0100 1.0100 1.0110 1.0110
1019.664377 1.0110 1.0120 1.0120 1.0100 1.0100
1024.346038 1.0100 1.0100 1.0110 1.0110 1.0110
1029.027700 1.0110 1.0110 1.0120 1.0110 1.0110
1033.709361 1.0110 1.0120 1.0110 1.0110 1.0110
1038.391023 1.0120 1.0110 1.0110 1.0120 1.0110
1043.072684 1.0110 1.0110 1.0110 1.0110 1.0110
1047.754346 1.0110 1.0110 1.0110 1.0120 1.0120
1052.436007 1.0110 1.0110 1.0110 1.0110 1.0110
1057.117668 1.0110 1.0110 1.0110 1.0120 1.0120
1061.799330 1.0120 1.0110 1.0110 1.0110 1.0110
1066.480991 1.0110 1.0110 1.0110 1.0110 1.0100
1071.162653 1.0080 1.0080 1.0070 1.0070 1.0080
1075.844314 1.0080 1.0080 1.0100 1.0100 1.0110
1080.525976 1.0120 1.0120 1.0120 1.0120 1.0120
1085.207637 1.0120 1.0120 1.0120 1.0120 1.0120
1089.889299 1.0140 1.0140 1.0140 1.0120 1.0120
1094.570960 1.0120 1.0120 1.0140 1.0140 1.0140
1099.252622 1.0150 1.0150 1.0170 1.0170 1.0150
1103.934283 1.0150 1.0150 1.0140 1.0140 1.0140
1108.615945 1.0140 1.0140 1.0150 1.0150 1.0150
1113.297606 1.0140 1.0140 1.0140 1.0140 1.0150
1117.979268 1.0150 1.0150 1.0170 1.0150 1.0150
1122.660929 1.0150 1.0150 1.0150 1.0150 1.0150
1127.342591 1.0150 1.0140 1.0140 1.0140 1.0140
1132.024252 1.0120 1.0110 1.0110 1.0100 1.0080
1136.705914 1.0080 1.0070 1.0070 1.0080 1.0100
1141.387575 1.0100 1.0100 1.0100 1.0100 1.0110
1146.069236 1.0110 1.0110 1.0120 1.0120 1.0140
1150.750898 1.0140 1.0150 1.0150 1.0150 1.0150
1155.432559 1.0150 1.0150 1.0170 1.0170 1.0170
1160.114221 1.0180 1.0180 1.0180 1.0180 1.0180
1164.795882 1.0180 1.0200 1.0200 1.0200 1.0200
1169.477544 1.0200 1.0180 1.0180 1.0170 1.0150
1174.159205 1.0140 1.0110 1.0100 1.0080 1.0080
1178.840867 1.0070 1.0080 1.0110 1.0170 1.0170
1183.522528 1.0180 1.0200 1.0200 1.0200 1.0200
1188.204190 1.0200 1.0200 1.0200 1.0200 1.0200
1192.885851 1.0200 1.0200 1.0210 1.0200 1.0200
1197.567513 1.0200 1.0200 1.0200 1.0200 1.0210
1202.249174 1.0200 1.0200 1.0200 1.0200 1.0200
1206.930836 1.0200 1.0200 1.0200 1.0200 1.0200
1211.612497 1.0180 1.0180 1.0200 1.0200 1.0200
1216.294159 1.0200 1.0200 1.0200 1.0200 1.0200
1220.975820 1.0180 1.0180 1.0200 1.0200 1.0200
1225.657481 1.0200 1.0200 1.0200 1.0200 1.0180
1230.339143 1.0180 1.0170 1.0170 1.0150 1.0150
1235.020804 1.0140 1.0140 1.0140 1.0140 1.0120
1239.702466 1.0120 1.0120 1.0120 1.0080 1.0080
1244.384127 1.0080 1.0070 1.0070 1.0050 1.0020
1249.065789 1.0010 1.0000 1.0000 1.0000 1.0000
1253.747450 0.9980 0.9980 0.9970 0.9970 0.9970
1258.429112 0.9970 0.9970 0.9970 0.9970 0.9970
1263.110773 0.9970 0.9970 0.9970 0.9970 0.9970
1267.792435 0.9970 0.9970 0.9970 0.9970 0.9970
1272.474096 0.9970 0.9970 0.9970 0.9970 0.9950
1277.155758 0.9950 0.9950 0.9950 0.9950 0.9950
1281.837419 0.9950 0.9950 0.9950 0.9950 0.9950
1286.519081 0.9950 0.9950 0.9950 0.9950 0.9950
1291.200742 0.9940 0.9940 0.9940 0.9940 0.9940
1295.882404 0.9940 0.9940 0.9940 0.9940 0.9940
1300.564065 0.9940 0.9950 0.9950 0.9950 0.9950
1305.245727 0.9950 0.9950 0.9950 0.9950 0.9950
1309.927388 0.9950 0.9950 0.9950 0.9950 0.9950
1314.609049 0.9950 0.9950 0.9950 0.9950 0.9950
1319.290711 0.9950 0.9950 0.9950 0.9950 0.9950
1323.972372 0.9950 0.9950 0.9950 0.9950 0.9950
1328.654034 0.9950 0.9950 0.9950 0.9950 0.9950
1333.335695 0.9950 0.9950 0.9950 0.9950 0.9950
1338.017357 0.9950 0.9950 0.9950 0.9950 0.9950
1342.699018 0.9950 0.9940 0.9940 0.9940 0.9940
1347.380680 0.9940 0.9940 0.9940 0.9940 0.9940
1352.062341 0.9940 0.9940 0.9940 0.9920 0.9920
1356.744003 0.9920 0.9920 0.9920 0.9920 0.9920
1361.425664 0.9920 0.9920 0.9920 0.9920 0.9920
1366.107326 0.9920 0.9920 0.9920 0.9920 0.9920
1370.788987 0.9920 0.9920 0.9920 0.9920 0.9920
1375.470649 0.9920 0.9920 0.9920 0.9920 0.9920
1380.152310 0.9920 0.9920 0.9920 0.9920 0.9920
1384.833972 0.9920 0.9920 0.9920 0.9920 0.9920
1389.515633 0.9920 0.9920 0.9910 0.9910 0.9910
1394.197295 0.9910 0.9910 0.9910 0.9910 0.9910
1398.878956 0.9910 0.9910 0.9910 0.9910 0.9910
1403.560617 0.9910 0.9910 0.9910 0.9910 0.9910
1408.242279 0.9910 0.9910 0.9910 0.9910 0.9910
1412.923940 0.9910 0.9910 0.9910 0.9910 0.9910
1417.605602 0.9910 0.9920 0.9910 0.9910 0.9950
1422.287263 0.9950 0.9920 0.9920 0.9920 0.9920
1426.968925 0.9920 0.9920 0.9910 0.9910 0.9910
1431.650586 0.9910 0.9890 0.9890 0.9890 0.9890
1436.332248 0.9880 0.9880 0.9880 0.9880 0.9880
1441.013909 0.9880 0.9880 0.9870 0.9850 0.9850
1445.695571 0.9840 0.9840 0.9840 0.9840 0.9840
1450.377232 0.9840 0.9840 0.9820 0.9810 0.9810
1455.058894 0.9790 0.9810 0.9820 0.9820 0.9820
1459.740555 0.9840 0.9840 0.9850 0.9870 0.9870
1464.422217 0.9870 0.9870 0.9870 0.9870 0.9880
1469.103878 0.9880 0.9880 0.9890 0.9890 0.9890
1473.785540 0.9890 0.9880 0.9870 0.9870 0.9850
1478.467201 0.9850 0.9850 0.9850 0.9850 0.9850
1483.148862 0.9850 0.9850 0.9850 0.9850 0.9840
1487.830524 0.9840 0.9840 0.9840 0.9840 0.9840
1492.512185 0.9840 0.9840 0.9820 0.9820 0.9820
1497.193847 0.9820 0.9820 0.9840 0.9820 0.9820
1501.875508 0.9810 0.9810 0.9790 0.9790 0.9780
1506.557170 0.9780 0.9780 0.9780 0.9780 0.9780
1511.238831 0.9780 0.9780 0.9780 0.9780 0.9780
1515.920493 0.9780 0.9780 0.9780 0.9780 0.9780
1520.602154 0.9780 0.9780 0.9780 0.9790 0.9810
1525.283816 0.9810 0.9820 0.9820 0.9820 0.9840
1529.965477 0.9840 0.9840 0.9840 0.9850 0.9850
1534.647139 0.9850 0.9850 0.9840 0.9810 0.9810
1539.328800 0.9790 0.9790 0.9790 0.9790 0.9810
1544.010462 0.9820 0.9820 0.9820 0.9820 0.9820
1548.692123 0.9820 0.9820 0.9820 0.9840 0.9840
1553.373785 0.9820 0.9820 0.9810 0.9810 0.9810
1558.055446 0.9810 0.9810 0.9810 0.9810 0.9810
1562.737108 0.9820 0.9820 0.9820 0.9820 0.9820
1567.418769 0.9820 0.9820 0.9820 0.9840 0.9850
1572.100430 0.9850 0.9840 0.9840 0.9840 0.9840
1576.782092 0.9840 0.9850 0.9850 0.9870 0.9870
1581.463753 0.9870 0.9850 0.9850 0.9850 0.9850
1586.145415 0.9850 0.9850 0.9850 0.9870 0.9880
1590.827076 0.9880 0.9880 0.9850 0.9850 0.9850
1595.508738 0.9850 0.9850 0.9840 0.9840 0.9840
1600.190399 0.9840 0.9840 0.9850 0.9850 0.9850
1604.872061 0.9850 0.9870 0.9870 0.9870 0.9870
1609.553722 0.9870 0.9870 0.9870 0.9850 0.9850
1614.235384 0.9850 0.9850 0.9850 0.9850 0.9850
1618.917045 0.9850 0.9850 0.9850 0.9850 0.9870
1623.598707 0.9880 0.9880 0.9880 0.9880 0.9880
1628.280368 0.9880 0.9880 0.9880 0.9890 0.9880
1632.962030 0.9870 0.9870 0.9870 0.9880 0.9880
1637.643691 0.9890 0.9910 0.9910 0.9910 0.9940
1642.325353 0.9910 0.9910 0.9910 0.9890 0.9890
1647.007014 0.9890 0.9890 0.9890 0.9890 0.9890
1651.688676 0.9870 0.9870 0.9890 0.9890 0.9890
1656.370337 0.9890 0.9890 0.9880 0.9870 0.9870
1661.051998 0.9870 0.9870 0.9850 0.9850 0.9850
1665.733660 0.9850 0.9840 0.9840 0.9840 0.9840
1670.415321 0.9840 0.9840 0.9840 0.9820 0.9820
1675.096983 0.9820 0.9820 0.9820 0.9840 0.9820
1679.778644 0.9820 0.9820 0.9820 0.9820 0.9820
1684.460306 0.9820 0.9820 0.9820 0.9840 0.9820
1689.141967 0.9820 0.9840 0.9840 0.9840 0.9810
1693.823629 0.9810 0.9790 0.9790 0.9790 0.9790
1698.505290 0.9780 0.9780 0.9790 0.9810 0.9810
1703.186952 0.9820 0.9820 0.9820 0.9820 0.9820
1707.868613 0.9820 0.9820 0.9820 0.9810 0.9810
1712.550275 0.9810 0.9790 0.9790 0.9780 0.9780
1717.231936 0.9780 0.9780 0.9780 0.9780 0.9780
1721.913598 0.9780 0.9780 0.9780 0.9780 0.9780
1726.595259 0.9780 0.9780 0.9780 0.9780 0.9780
1731.276921 0.9780 0.9780 0.9790 0.9820 0.9810
1735.958582 0.9810 0.9810 0.9810 0.9810 0.9820
1740.640243 0.9820 0.9820 0.9810 0.9790 0.9790
1745.321905 0.9780 0.9790 0.9790 0.9790 0.9780
1750.003566 0.9780 0.9780 0.9780 0.9780 0.9780
1754.685228 0.9780 0.9780 0.9780 0.9780 0.9780
1759.366889 0.9780 0.9780 0.9780 0.9780 0.9780
1764.048551 0.9780 0.9780 0.9780 0.9780 0.9780
1768.730212 0.9780 0.9780 0.9790 0.9790 0.9810
1773.411874 0.9820 0.9820 0.9820 0.9820 0.9810
1778.093535 0.9810 0.9810 0.9810 0.9790 0.9780
1782.775197 0.9780 0.9780 0.9780 0.9780 0.9790
1787.456858 0.9790 0.9790 0.9790 0.9790 0.9810
1792.138520 0.9820 0.9820 0.9840 0.9840 0.9820
1796.820181 0.9820 0.9820 0.9820 0.9840 0.9840
1801.501843 0.9840 0.9840 0.9840 0.9840 0.9850
1806.183504 0.9840 0.9840 0.9840 0.9840 0.9840
1810.865166 0.9840 0.9840 0.9850 0.9850 0.9850
1815.546827 0.9850 0.9850 0.9850 0.9850 0.9840
1820.228489 0.9840 0.9840 0.9840 0.9820 0.9820
1824.910150 0.9820 0.9810 0.9810 0.9820 0.9820
1829.591811 0.9820 0.9840 0.9840 0.9840 0.9840
1834.273473 0.9840 0.9840 0.9840 0.9840 0.9840
1838.955134 0.9820 0.9820 0.9820 0.9820 0.9810
1843.636796 0.9810 0.9820 0.9820 0.9820 0.9820
1848.318457 0.9840 0.9840 0.9840 0.9840 0.9840
1853.000119 0.9840 0.9840 0.9840 0.9840 0.9840
1857.681780 0.9840 0.9840 0.9840 0.9840 0.9840
1862.363442 0.9820 0.9810 0.9810 0.9790 0.9810
1867.045103 0.9820 0.9820 0.9820 0.9840 0.9840
1871.726765 0.9840 0.9840 0.9840 0.9840 0.9820
1876.408426 0.9820 0.9820 0.9820 0.9820 0.9820
1881.090088 0.9820 0.9810 0.9790 0.9790 0.9790
1885.771749 0.9790 0.9790 0.9790 0.9820 0.9820
1890.453411 0.9820 0.9820 0.9810 0.9810 0.9820
1895.135072 0.9820 0.9820 0.9820 0.9820 0.9820
1899.816734 0.9820 0.9820 0.9820 0.9820 0.9820
1904.498395 0.9820 0.9810 0.9810 0.9790 0.9790
1909.180056 0.9790 0.9790 0.9790 0.9780 0.9790
1913.861718 0.9790 0.9810 0.9810 0.9810 0.9790
1918.543379 0.9790 0.9790 0.9790 0.9790 0.9790
1923.225041 0.9790 0.9790 0.9810 0.9810 0.9810
1927.906702 0.9810 0.9810 0.9810 0.9810 0.9810
1932.588364 0.9810 0.9820 0.9820 0.9820 0.9820
1937.270025 0.9810 0.9790 0.9790 0.9790 0.9790
1941.951687 0.9790 0.9790 0.9790 0.9790 0.9790
1946.633348 0.9790 0.9790 0.9810 0.9810 0.9810
1951.315010 0.9790 0.9790 0.9780 0.9760 0.9760
1955.996671 0.9750 0.9750 0.9760 0.9780 0.9780
1960.678333 0.9790 0.9810 0.9820 0.9820 0.9820
1965.359994 0.9820 0.9840 0.9840 0.9840 0.9840
1970.041656 0.9840 0.9840 0.9840 0.9850 0.9850
1974.723317 0.9850 0.9870 0.9870 0.9870 0.9870
1979.404979 0.9870 0.9870 0.9870 0.9870 0.9880
1984.086640 0.9880 0.9870 0.9870 0.9870 0.9870
1988.768302 0.9880 0.9870 0.9870 0.9870 0.9870
1993.449963 0.9870 0.9870 0.9870 0.9870 0.9870
1998.131624 0.9850 0.9850 0.9850 0.9850 0.9850
2002.813286 0.9850 0.9850 0.9850 0.9850 0.9845
2007.494947 0.9840 0.9830 0.9820 0.9820 0.9820
2012.176609 0.9815 0.9810 0.9800 0.9790 0.9785
2016.858270 0.9780 0.9760 0.9740 0.9715 0.9690
2021.539932 0.9670 0.9650 0.9635 0.9620 0.9605
2026.221593 0.9590 0.9575 0.9560 0.9540 0.9520
2030.903255 0.9500 0.9480 0.9455 0.9430 0.9410
2035.584916 0.9390 0.9370 0.9350 0.9325 0.9300
2040.266578 0.9285 0.9270 0.9220 0.9171 0.9106
2044.948239 0.9041 0.8986 0.8931 0.8871 0.8811
2049.629901 0.8756 0.8701 0.8641 0.8581 0.8482
2054.311562 0.8383 0.8262 0.8141 0.8026 0.7911
2058.993224 0.7786 0.7662 0.7547 0.7432 0.7312
2063.674885 0.7192 0.7131 0.7071 0.7011 0.6951
2068.356547 0.6833 0.6713 0.6598 0.6483 0.6359
2073.038208 0.6234 0.6103 0.5972 0.5847 0.5722
2077.719870 0.5582 0.5442 0.5307 0.5173 0.5043
2082.401531 0.4913 0.4773 0.4633 0.4508 0.4383
2087.083192 0.4244 0.4104 0.4061 0.4021 0.3976
2091.764854 0.3932 0.3847 0.3761 0.3667 0.3572
2096.446515 0.3477 0.3382 0.3287 0.3192 0.3092
2101.128177 0.2993 0.2863 0.2734 0.2652 0.2572
2105.809838 0.2497 0.2422 0.2343 0.2263 0.2183
2110.491500 0.2103 0.2027 0.1952 0.1877 0.1802
2115.173161 0.1722 0.1642 0.1562 0.1482 0.1470
2119.854823 0.1460 0.1475 0.1490 0.1630 0.1775
2124.536484 0.1920 0.2065 0.2214 0.2364 0.2509
2129.218146 0.2654 0.2737 0.2818 0.2864 0.2909
2133.899807 0.3595 0.4299 0.4737 0.5166 0.5475
2138.581469 0.5779 0.6373 0.6978 0.7149 0.7304
2143.263130 0.7320 0.7330 0.7335 0.7340 0.7335
2147.944792 0.7330 0.7272 0.7212 0.6972 0.6728
2152.626453 0.6483 0.6238 0.5844 0.5444 0.5103
2157.308115 0.4763 0.4481 0.4201 0.4080 0.3965
2161.989776 0.3841 0.3716 0.3505 0.3290 0.3080
2166.671437 0.2871 0.2654 0.2437 0.2198 0.1958
2171.353099 0.1786 0.1616 0.1547 0.1483 0.1470
2176.034760 0.1460 0.1470 0.1480 0.1571 0.1666
2180.716422 0.1751 0.1836 0.1930 0.2025 0.2110
2185.398083 0.2195 0.2291 0.2386 0.2472 0.2557
2190.079745 0.2651 0.2746 0.2860 0.2975 0.3104
2194.761406 0.3234 0.3364 0.3494 0.3747 0.4007
2199.443068 0.4138 0.4263 0.4393 0.4523 0.4653
2204.124729 0.4782 0.4913 0.5045 0.5175 0.5304
2208.806391 0.5430 0.5554 0.5565 0.5570 0.5722
2213.488052 0.5882 0.6032 0.6182 0.6341 0.6501
2218.169714 0.6803 0.7112 0.7271 0.7421 0.7580
2222.851375 0.7740 0.7892 0.8043 0.8164 0.8284
2227.533037 0.8300 0.8310 0.8486 0.8670 0.8765
2232.214698 0.8855 0.8936 0.9015 0.9058 0.9098
2236.896360 0.9189 0.9284 0.9304 0.9319 0.9334
2241.578021 0.9349 0.9458 0.9574 0.9642 0.9707
2246.259683 0.9734 0.9759 0.9784 0.9809 0.9815
2250.941344 0.9820 0.9829 0.9839 0.9854 0.9869
2255.623005 0.9870 0.9870 0.9870 0.9870 0.9870
2260.304667 0.9870 0.9870 0.9870 0.9875 0.9880
2264.986328 0.9885 0.9890 0.9899 0.9909 0.9910
2269.667990 0.9910 0.9901 0.9891 0.9890 0.9890
2274.349651 0.9890 0.9890 0.9885 0.9880 0.9880
2279.031313 0.9880 0.9880 0.9880 0.9885 0.9890
2283.712974 0.9899 0.9909 0.9915 0.9920 0.9934
2288.394636 0.9949 0.9950 0.9950 0.9936 0.9921
2293.076297 0.9915 0.9910 0.9901 0.9891 0.9872
2297.757959 0.9852 0.9836 0.9821 0.9806 0.9791
2302.439620 0.9771 0.9751 0.9745 0.9740 0.9726
2307.121282 0.9711 0.9701 0.9691 0.9685 0.9680
2311.802943 0.9680 0.9680 0.9671 0.9661 0.9646
2316.484605 0.9631 0.9625 0.9620 0.9620 0.9620
2321.166266 0.9615 0.9610 0.9610 0.9610 0.9601
2325.847928 0.9591 0.9585 0.9580 0.9580 0.9580
2330.529589 0.9580 0.9580 0.9571 0.9561 0.9560
2335.211250 0.9560 0.9560 0.9560 0.9555 0.9550
2339.892912 0.9550 0.9550 0.9550 0.9550 0.9550
2344.574573 0.9550 0.9550 0.9550 0.9555 0.9560
2349.256235 0.9560 0.9560 0.9560 0.9560 0.9569
2353.937896 0.9579 0.9585 0.9590 0.9590 0.9590
2358.619558 0.9599 0.9609 0.9619 0.9629 0.9639
2363.301219 0.9649 0.9664 0.9679 0.9685 0.9690
2367.982881 0.9704 0.9719 0.9729 0.9739 0.9745
2372.664542 0.9750 0.9755 0.9760 0.9769 0.9779
2377.346204 0.9785 0.9790 0.9804 0.9819 0.9852
2382.027865 0.9887 0.9899 0.9909 0.9910 0.9910
2386.709527 0.9915 0.9920 0.9920 0.9920 0.9920
2391.391188 0.9920 0.9929 0.9939 0.9940 0.9940
2396.072850 0.9940 0.9940 0.9940 0.9940 0.9940
2400.754511 0.9940 0.9940 0.9940 0.9940 0.9940
2405.436173 0.9940 0.9940 0.9931 0.9921 0.9920
2410.117834 0.9920 0.9920 0.9920 0.9920 0.9920
2414.799496 0.9920 0.9920 0.9920 0.9920 0.9920
2419.481157 0.9920 0.9920 0.9920 0.9920 0.9920
2424.162818 0.9920 0.9920 0.9920 0.9920 0.9920
2428.844480 0.9920 0.9929 0.9939 0.9931 0.9921
2433.526141 0.9920 0.9920 0.9920 0.9920 0.9920
2438.207803 0.9920 0.9920 0.9920 0.9920 0.9920
2442.889464 0.9920 0.9920 0.9920 0.9920 0.9920
2447.571126 0.9920 0.9920 0.9920 0.9920 0.9920
2452.252787 0.9920 0.9920 0.9920 0.9920 0.9920
2456.934449 0.9920 0.9920 0.9920 0.9920 0.9920
2461.616110 0.9920 0.9920 0.9920 0.9920 0.9920
2466.297772 0.9920 0.9920 0.9920 0.9920 0.9920
2470.979433 0.9920 0.9920 0.9920 0.9920 0.9916
2475.661095 0.9911 0.9910 0.9910 0.9910 0.9910
2480.342756 0.9910 0.9910 0.9910 0.9910 0.9910
2485.024418 0.9910 0.9910 0.9910 0.9910 0.9910
2489.706079 0.9910 0.9910 0.9910 0.9910 0.9910
2494.387741 0.9910 0.9910 0.9910 0.9910 0.9910
2499.069402 0.9914 0.9919 0.9920 0.9920 0.9920
2503.751064 0.9920 0.9920 0.9920 0.9920 0.9920
2508.432725 0.9929 0.9939 0.9940 0.9940 0.9940
2513.114386 0.9940 0.9940 0.9940 0.9940 0.9940
2517.796048 0.9940 0.9940 0.9940 0.9940 0.9940
2522.477709 0.9940 0.9940 0.9940 0.9940 0.9940
2527.159371 0.9931 0.9921 0.9920 0.9920 0.9920
2531.841032 0.9920 0.9920 0.9920 0.9920 0.9920
2536.522694 0.9920 0.9920 0.9920 0.9920 0.9920
2541.204355 0.9920 0.9920 0.9920 0.9929 0.9939
2545.886017 0.9931 0.9921 0.9929 0.9939 0.9940
2550.567678 0.9940 0.9940 0.9940 0.9940 0.9940
2555.249340 0.9940 0.9940 0.9940 0.9940 0.9944
2559.931001 0.9949 0.9950 0.9950 0.9950 0.9950
2564.612663 0.9950 0.9950 0.9950 0.9950 0.9950
2569.294324 0.9950 0.9950 0.9950 0.9950 0.9950
2573.975986 0.9950 0.9950 0.9950 0.9950 0.9950
2578.657647 0.9950 0.9950 0.9950 0.9950 0.9950
2583.339309 0.9950 0.9950 0.9950 0.9950 0.9950
2588.020970 0.9950 0.9950 0.9950 0.9950 0.9950
2592.702631 0.9950 0.9950 0.9950 0.9950 0.9950
2597.384293 0.9950 0.9950 0.9950 0.9950 0.9950
2602.065954 0.9950 0.9950 0.9950 0.9950 0.9950
2606.747616 0.9950 0.9950 0.9950 0.9950 0.9950
2611.429277 0.9950 0.9950 0.9946 0.9941 0.9940
2616.110939 0.9940 0.9940 0.9940 0.9940 0.9940
2620.792600 0.9931 0.9921 0.9920 0.9920 0.9920
2625.474262 0.9920 0.9920 0.9920 0.9929 0.9939
2630.155923 0.9940 0.9940 0.9940 0.9940 0.9932
2634.837585 0.9922 0.9920 0.9920 0.9920 0.9920
2639.519246 0.9920 0.9920 0.9929 0.9939 0.9944
2644.200908 0.9949 0.9950 0.9950 0.9950 0.9950
2648.882569 0.9950 0.9950 0.9946 0.9941 0.9940
2653.564231 0.9940 0.9940 0.9940 0.9940 0.9940
2658.245892 0.9940 0.9940 0.9940 0.9940 0.9931
2662.927554 0.9921 0.9920 0.9920 0.9920 0.9920
2667.609215 0.9920 0.9920 0.9920 0.9920 0.9928
2672.290877 0.9938 0.9940 0.9940 0.9940 0.9940
2676.972538 0.9940 0.9940 0.9940 0.9940 0.9940
2681.654199 0.9940 0.9940 0.9940 0.9940 0.9940
2686.335861 0.9940 0.9940 0.9944 0.9949 0.9950
2691.017522 0.9950 0.9950 0.9950 0.9950 0.9950
2695.699184 0.9950 0.9950 0.9950 0.9950 0.9950
2700.380845 0.9950 0.9950 0.9950 0.9950 0.9950
2705.062507 0.9950 0.9950 0.9950 0.9950 0.9950
2709.744168 0.9950 0.9950 0.9950 0.9950 0.9950
2714.425830 0.9950 0.9950 0.9950 0.9950 0.9950
2719.107491 0.9950 0.9950 0.9950 0.9950 0.9950
2723.789153 0.9950 0.9950 0.9950 0.9950 0.9950
2728.470814 0.9950 0.9950 0.9950 0.9950 0.9950
2733.152476 0.9950 0.9950 0.9950 0.9950 0.9950
2737.834137 0.9950 0.9950 0.9950 0.9950 0.9950
2742.515799 0.9950 0.9950 0.9950 0.9950 0.9950
2747.197460 0.9950 0.9950 0.9950 0.9950 0.9950
2751.879122 0.9950 0.9950 0.9950 0.9950 0.9950
2756.560783 0.9950 0.9950 0.9950 0.9950 0.9950
2761.242444 0.9950 0.9950 0.9950 0.9950 0.9950
2765.924106 0.9950 0.9950 0.9950 0.9950 0.9950
2770.605767 0.9950 0.9950 0.9950 0.9950 0.9946
2775.287429 0.9941 0.9940 0.9940 0.9940 0.9940
2779.969090 0.9940 0.9940 0.9940 0.9940 0.9932
2784.650752 0.9922 0.9920 0.9920 0.9920 0.9920
2789.332413 0.9920 0.9920 0.9916 0.9911 0.9910
2794.014075 0.9910 0.9910 0.9910 0.9910 0.9910
2798.695736 0.9910 0.9910 0.9910 0.9910 0.9910
2803.377398 0.9910 0.9910 0.9910 0.9910 0.9910
2808.059059 0.9910 0.9910 0.9910 0.9910 0.9910
2812.740721 0.9910 0.9910 0.9910 0.9910 0.9910
2817.422382 0.9910 0.9910 0.9914 0.9919 0.9920
2822.104044 0.9920 0.9920 0.9920 0.9928 0.9938
2826.785705 0.9940 0.9940 0.9940 0.9940 0.9944
2831.467367 0.9949 0.9950 0.9950 0.9950 0.9950
2836.149028 0.9950 0.9950 0.9958 0.9968 0.9970
2840.830690 0.9970 0.9974 0.9979 0.9980 0.9980
2845.512351 0.9988 0.9998 1.0000 1.0000 1.0000
2850.194012 1.0000 0.9992 0.9982 0.9976 0.9971
2854.875674 0.9950 0.9925 0.9916 0.9911 0.9902
2859.557335 0.9892 0.9890 0.9890 0.9890 0.9890
2864.238997 0.9890 0.9890 0.9890 0.9890 0.9890
2868.920658 0.9890 0.9890 0.9890 0.9890 0.9890
2873.602320 0.9890 0.9890 0.9890 0.9890 0.9890
2878.283981 0.9890 0.9890 0.9890 0.9890 0.9890
2882.965643 0.9890 0.9890 0.9898 0.9908 0.9910
2887.647304 0.9910 0.9910 0.9910 0.9910 0.9910
2892.328966 0.9914 0.9919 0.9916 0.9911 0.9910
2897.010627 0.9910 0.9910 0.9910 0.9910 0.9910
2901.692289 0.9922 0.9937 0.9944 0.9949 0.9950
2906.373950 0.9950 0.9962 0.9977 0.9988 0.9998
2911.055612 1.0000 1.0000 1.0000 1.0000 1.0000
2915.737273 1.0000 0.9992 0.9982 0.9976 0.9971
2920.418935 0.9950 0.9925 0.9904 0.9884 0.9856
2925.100596 0.9826 0.9816 0.9811 0.9810 0.9810
2929.782258 0.9802 0.9792 0.9786 0.9781 0.9780
2934.463919 0.9780 0.9780 0.9780 0.9780 0.9780
2939.145580 0.9780 0.9780 0.9780 0.9780 0.9784
2943.827242 0.9789 0.9790 0.9790 0.9790 0.9790
2948.508903 0.9790 0.9790 0.9790 0.9790 0.9790
2953.190565 0.9790 0.9798 0.9808 0.9810 0.9810
2957.872226 0.9810 0.9810 0.9810 0.9810 0.9810
2962.553888 0.9810 0.9810 0.9810 0.9810 0.9810
2967.235549 0.9814 0.9819 0.9820 0.9820 0.9828
2971.917211 0.9838 0.9844 0.9849 0.9850 0.9850
2976.598872 0.9858 0.9868 0.9870 0.9870 0.9870
2981.280534 0.9870 0.9874 0.9879 0.9884 0.9889
2985.962195 0.9898 0.9908 0.9910 0.9910 0.9910
2990.643857 0.9910 0.9910 0.9910 0.9914 0.9919
2995.325518 0.9920 0.9920 0.9920 0.9920 0.9920
3000.007180 0.9920 0.9920 0.9920 0.9920 0.9920
3004.688841 0.9916 0.9911 0.9902 0.9892 0.9890
3009.370503 0.9890 0.9890 0.9890 0.9898 0.9908
3014.052164 0.9902 0.9892 0.9890 0.9890 0.9890
3018.733825 0.9890 0.9890 0.9890 0.9890 0.9890
3023.415487 0.9898 0.9908 0.9910 0.9910 0.9910
3028.097148 0.9910 0.9910 0.9910 0.9910 0.9910
3032.778810 0.9910 0.9910 0.9910 0.9910 0.9902
3037.460471 0.9892 0.9890 0.9890 0.9890 0.9890
3042.142133 0.9890 0.9890 0.9890 0.9890 0.9898
3046.823794 0.9908 0.9910 0.9910 0.9910 0.9910
3051.505456 0.9910 0.9910 0.9910 0.9910 0.9902
3056.187117 0.9892 0.9898 0.9908 0.9910 0.9910
3060.868779 0.9914 0.9919 0.9920 0.9920 0.9920
3065.550440 0.9920 0.9928 0.9938 0.9940 0.9940
3070.232102 0.9940 0.9940 0.9940 0.9940 0.9940
3074.913763 0.9940 0.9940 0.9940 0.9940 0.9940
3079.595425 0.9940 0.9940 0.9940 0.9940 0.9940
3084.277086 0.9940 0.9940 0.9940 0.9940 0.9940
3088.958748 0.9940 0.9940 0.9940 0.9940 0.9940
3093.640409 0.9940 0.9940 0.9940 0.9944 0.9949
3098.322071 0.9950 0.9950 0.9950 0.9950 0.9950
3103.003732 0.9950 0.9950 0.9950 0.9950 0.9950
3107.685393 0.9950 0.9950 0.9950 0.9950 0.9950
3112.367055 0.9950 0.9950 0.9950 0.9950 0.9950
3117.048716 0.9950 0.9950 0.9957 0.9967 0.9970
3121.730378 0.9970 0.9970 0.9970 0.9970 0.9970
3126.412039 0.9970 0.9970 0.9970 0.9970 0.9970
3131.093701 0.9970 0.9970 0.9970 0.9970 0.9970
3135.775362 0.9970 0.9970 0.9970 0.9970 0.9970
3140.457024 0.9970 0.9970 0.9970 0.9974 0.9979
3145.138685 0.9980 0.9980 0.9980 0.9980 0.9980
3149.820347 0.9980 0.9980 0.9980 0.9980 0.9980
3154.502008 0.9980 0.9980 0.9980 0.9980 0.9980
3159.183670 0.9980 0.9980 0.9980 0.9980 0.9980
3163.865331 0.9980 0.9980 0.9980 0.9980 0.9980
3168.546993 0.9980 0.9980 0.9980 0.9980 0.9980
3173.228654 0.9980 0.9980 0.9980 0.9980 0.9980
3177.910316 0.9980 0.9980 0.9980 0.9980 0.9980
3182.591977 0.9980 0.9980 0.9980 0.9980 0.9980
3187.273638 0.9980 0.9980 0.9980 0.9980 0.9980
3191.955300 0.9980 0.9980 0.9980 0.9980 0.9980
3196.636961 0.9980 0.9980 0.9980 0.9987 0.9997
3201.318623 1.0000 1.0000 1.0000 1.0000 1.0000
3206.000284 1.0000 1.0000 1.0000 0.9993 0.9983
3210.681946 0.9980 0.9980 0.9980 0.9980 0.9980
3215.363607 0.9980 0.9980 0.9980 0.9980 0.9980
3220.045269 0.9980 0.9980 0.9987 0.9997 1.0000
3224.726930 1.0000 1.0000 1.0000 1.0000 1.0000
3229.408592 1.0000 1.0000 1.0000 1.0000 1.0000
3234.090253 1.0000 1.0000 1.0000 1.0000 1.0000
3238.771915 1.0000 1.0000 1.0000 1.0000 1.0000
3243.453576 1.0000 1.0000 1.0000 1.0000 1.0000
3248.135238 1.0000 1.0000 1.0000 1.0000 1.0000
3252.816899 1.0000 0.9993 0.9983 0.9980 0.9980
3257.498561 0.9976 0.9971 0.9970 0.9970 0.9981
3262.180222 0.9996 1.0000 1.0000 1.0000 1.0000
3266.861884 1.0000 1.0000 1.0000 1.0000 1.0000
3271.543545 1.0000 1.0000 1.0000 1.0000 1.0000
3276.225206 1.0000 1.0000 1.0000 1.0000 1.0000
3280.906868 1.0000 1.0000 1.0000 1.0000 1.0000
3285.588529 1.0000 1.0000 1.0000 1.0000 1.0000
3290.270191 1.0000 1.0000 1.0000 1.0000 1.0000
3294.951852 1.0000 1.0000 1.0000 1.0000 1.0000
3299.633514 1.0000 1.0004 1.0009 1.0010 1.0010
3304.315175 1.0007 1.0002 1.0000 1.0000 1.0000
3308.996837 1.0000 1.0004 1.0009 1.0010 1.0010
3313.678498 1.0006 1.0001 1.0000 1.0000 1.0000
3318.360160 1.0000 1.0004 1.0009 1.0010 1.0010
3323.041821 1.0007 1.0002 1.0000 1.0000 1.0000
3327.723483 1.0000 1.0000 1.0000 1.0000 1.0000
3332.405144 1.0000 1.0000 1.0000 1.0000 1.0000
3337.086806 1.0000 1.0000 1.0000 1.0004 1.0009
3341.768467 1.0010 1.0010 1.0010 1.0010 1.0010
3346.450129 1.0010 1.0010 1.0010 1.0010 1.0010
3351.131790 1.0007 1.0002 1.0000 1.0000 1.0000
3355.813452 1.0000 1.0000 1.0000 1.0000 1.0000
3360.495113 1.0000 1.0000 1.0000 1.0000 1.0000
3365.176774 1.0000 1.0000 1.0000 1.0000 1.0000
3369.858436 1.0000 1.0000 1.0004 1.0009 1.0010
3374.540097 1.0010 1.0010 1.0010 1.0010 1.0010
3379.221759 1.0010 1.0010 1.0010 1.0010 1.0010
3383.903420 1.0010 1.0010 1.0010 1.0010 1.0010
3388.585082 1.0010 1.0010 1.0010 1.0010 1.0010
3393.266743 1.0010 1.0010 1.0010 1.0010 1.0010
3397.948405 1.0010 1.0010 1.0010 1.0010 1.0010
3402.630066 1.0010 1.0010 1.0010 1.0010 1.0010
3407.311728 1.0010 1.0010 1.0010 1.0010 1.0010
3411.993389 1.0010 1.0010 1.0010 1.0010 1.0010
3416.675051 1.0010 1.0010 1.0010 1.0010 1.0007
3421.356712 1.0002 1.0000 1.0000 1.0004 1.0009
3426.038374 1.0010 1.0010 1.0010 1.0010 1.0010
3430.720035 1.0010 1.0010 1.0010 1.0010 1.0010
3435.401697 1.0010 1.0010 1.0010 1.0010 1.0010
3440.083358 1.0010 1.0010 1.0010 1.0010 1.0010
3444.765019 1.0010 1.0010 1.0010 1.0010 1.0007
3449.446681 1.0002 1.0000 1.0000 1.0000 1.0000
3454.128342 1.0000 1.0000 1.0000 1.0000 1.0000
3458.810004 1.0000 1.0000 1.0000 1.0000 1.0000
3463.491665 1.0000 1.0000 1.0000 1.0000 1.0000
3468.173327 1.0000 1.0000 1.0000 1.0000 1.0000
3472.854988 1.0000 1.0000 1.0000 1.0000 1.0000
3477.536650 1.0000 1.0000 1.0000 1.0000 1.0000
3482.218311 1.0000 1.0000 1.0000 1.0000 1.0000
3486.899973 1.0000 1.0000 1.0000 1.0000 1.0000
3491.581634 1.0000 1.0000 1.0000 1.0000 1.0000
3496.263296 1.0000 1.0000 1.0000 1.0000 1.0000
3500.944957 1.0000 1.0000 0.9993 0.9983 0.9980
3505.626619 0.9980 0.9980 0.9980 0.9980 0.9980
3510.308280 0.9980 0.9980 0.9987 0.9997 1.0000
3514.989942 1.0000 1.0003 1.0008 1.0010 1.0010
3519.671603 1.0010 1.0010 1.0010 1.0010 1.0010
3524.353265 1.0010 1.0010 1.0010 1.0010 1.0010
3529.034926 1.0010 1.0010 1.0010 1.0010 1.0007
3533.716587 1.0002 1.0000 1.0000 1.0000 1.0000
3538.398249 1.0000 1.0000 1.0000 1.0000 1.0000
3543.079910 1.0000 1.0000 1.0000 1.0000 1.0000
3547.761572 1.0000 1.0000 0.9994 0.9984 0.9980
3552.443233 0.9980 0.9980 0.9980 0.9980 0.9980
3557.124895 0.9977 0.9972 0.9970 0.9970 0.9970
3561.806556 0.9970 0.9970 0.9970 0.9964 0.9954
3566.488218 0.9950 0.9950 0.9950 0.9950 0.9950
3571.169879 0.9950 0.9950 0.9950 0.9950 0.9950
3575.851541 0.9947 0.9942 0.9940 0.9940 0.9940
3580.533202 0.9940 0.9940 0.9940 0.9940 0.9940
3585.214864 0.9940 0.9940 0.9940 0.9940 0.9940
3589.896525 0.9940 0.9934 0.9923 0.9920 0.9920
3594.578187 0.9920 0.9920 0.9920 0.9920 0.9920
3599.259848 0.9920 0.9920 0.9920 0.9920 0.9920
3603.941510 0.9920 0.9920 0.9920 0.9920 0.9920
3608.623171 0.9920 0.9926 0.9936 0.9933 0.9924
3613.304832 0.9920 0.9920 0.9920 0.9920 0.9920
3617.986494 0.9920 0.9920 0.9920 0.9920 0.9920
3622.668155 0.9926 0.9936 0.9940 0.9940 0.9940
3627.349817 0.9940 0.9934 0.9924 0.9920 0.9920
3632.031478 0.9920 0.9920 0.9920 0.9920 0.9926
3636.713140 0.9936 0.9943 0.9948 0.9950 0.9950
3641.394801 0.9950 0.9950 0.9950 0.9950 0.9950
3646.076463 0.9950 0.9950 0.9950 0.9950 0.9950
3650.758124 0.9950 0.9950 0.9947 0.9942 0.9940
3655.439786 0.9940 0.9934 0.9924 0.9920 0.9920
3660.121447 0.9920 0.9920 0.9920 0.9920 0.9920
3664.803109 0.9920 0.9920 0.9920 0.9920 0.9920
3669.484770 0.9920 0.9920 0.9917 0.9912 0.9910
3674.166432 0.9910 0.9904 0.9894 0.9890 0.9890
3678.848093 0.9890 0.9890 0.9890 0.9890 0.9890
3683.529755 0.9890 0.9890 0.9890 0.9890 0.9890
3688.211416 0.9896 0.9906 0.9910 0.9910 0.9910
3692.893078 0.9910 0.9910 0.9910 0.9913 0.9918
3697.574739 0.9920 0.9920 0.9926 0.9936 0.9943
3702.256400 0.9948 0.9956 0.9966 0.9964 0.9954
3706.938062 0.9950 0.9950 0.9950 0.9950 0.9950
3711.619723 0.9950 0.9947 0.9942 0.9940 0.9940
3716.301385 0.9940 0.9940 0.9934 0.9924 0.9920
3720.983046 0.9920 0.9920 0.9920 0.9920 0.9920
3725.664708 0.9920 0.9920 0.9926 0.9936 0.9940
3730.346369 0.9940 0.9943 0.9948 0.9950 0.9950
3735.028031 0.9950 0.9950 0.9959 0.9974 0.9980
3739.709692 0.9980 0.9980 0.9980 0.9980 0.9980
3744.391354 0.9980 0.9980 0.9980 0.9980 0.9986
3749.073015 0.9996 1.0000 1.0000 1.0000 1.0000
3753.754677 1.0000 1.0000 0.9994 0.9984 0.9977
3758.436338 0.9972 0.9964 0.9954 0.9950 0.9950
3763.118000 0.9956 0.9966 0.9973 0.9978 0.9980
3767.799661 0.9980 0.9980 0.9980 0.9980 0.9980
3772.481323 0.9980 0.9980 0.9977 0.9972 0.9970
3777.162984 0.9970 0.9970 0.9970 0.9970 0.9970
3781.844646 0.9970 0.9970 0.9970 0.9970 0.9964
3786.526307 0.9954 0.9950 0.9950 0.9950 0.9950
3791.207968 0.9950 0.9950 0.9950 0.9950 0.9950
3795.889630 0.9950 0.9950 0.9950 0.9950 0.9950
3800.571291 0.9950 0.9950 0.9950 0.9950
##END=
