##TITLE=ACETONE
##JCAMP-DX=4.24
##DATA TYPE=INFRARED SPECTRUM
##CLASS=COBLENTZ III
##ORIGIN=WESTERN REGIONAL RES. USDA
##OWNER=COBLENTZ SOCIETY
Collection (C) 2007 copyright by the U.S. Secretary of Commerce
on behalf of the United States of America. All rights reserved.
##DATE=1964/06/08
##CAS REGISTRY NO=67-64-1
##MOLFORM=C3H6O
##SOURCE REFERENCE=COBLENTZ NO. 6189
##$NIST SOURCE=COBLENTZ
##$NIST IMAGE=cob6189
##SPECTROMETER/DATA SYSTEM=BECKMAN IR-7 (GRATING)
##INSTRUMENT PARAMETERS=GRATING CHANGES AT 3000, 2200, 1150 CM^-^1
##STATE=SOLUTION (10% IN CCl4 FOR 4000-1330 CM^-^1, 10% IN CS2 FOR 1330-600 CM^-^1)
##PATH LENGTH=0.011 CM, 0.010 CM
$$SPECTRAL CONTAMINATION DUE TO CCl4 AROUND 1550, AND CS2 AROUND 855 CM^-^1
##SAMPLING PROCEDURE=TRANSMISSION
##RESOLUTION=4
##DATA PROCESSING=DIGITIZED BY NIST FROM HARD COPY (FROM TWO SEGMENTS)
##XUNITS=1/CM
##YUNITS=TRANSMITTANCE
##XFACTOR=1.000000
##YFACTOR=1
##DELTAX=0.649051
##FIRSTX=598.702
##LASTX=3983.5
##FIRSTY=0.804
##MAXX=3983.5
##MINX=598.702
##MAXY=0.808
##MINY=0
##NPOINTS=5216
##XYDATA=(X++(Y..Y))
598.702000 0.8040 0.8020 0.8020 0.8020 0.8010
601.947253 0.8040 0.8020 0.8020 0.8020 0.8010
605.192506 0.8000 0.7990 0.7980 0.7970 0.7970
608.437758 0.7970 0.7960 0.7970 0.7970 0.7970
611.683011 0.7970 0.7970 0.7970 0.7970 0.7970
614.928264 0.7970 0.7970 0.7970 0.7960 0.7960
618.173517 0.7950 0.7930 0.7930 0.7920 0.7920
621.418770 0.7910 0.7900 0.7900 0.7900 0.7890
624.664022 0.7890 0.7880 0.7880 0.7880 0.7880
627.909275 0.7880 0.7870 0.7860 0.7860 0.7860
631.154528 0.7850 0.7840 0.7830 0.7810 0.7790
634.399781 0.7760 0.7760 0.7750 0.7750 0.7740
637.645033 0.7730 0.7710 0.7680 0.7650 0.7610
640.890286 0.7600 0.7590 0.7590 0.7580 0.7580
644.135539 0.7560 0.7540 0.7500 0.7470 0.7440
647.380792 0.7410 0.7410 0.7400 0.7390 0.7380
650.626045 0.7360 0.7350 0.7340 0.7340 0.7320
653.871297 0.7320 0.7290 0.7270 0.7220 0.7200
657.116550 0.7190 0.7190 0.7200 0.7200 0.7200
660.361803 0.7250 0.7300 0.7370 0.7410 0.7470
663.607056 0.7500 0.7540 0.7560 0.7590 0.7630
666.852309 0.7650 0.7680 0.7700 0.7710 0.7720
670.097561 0.7730 0.7740 0.7740 0.7740 0.7750
673.342814 0.7750 0.7750 0.7740 0.7740 0.7730
676.588067 0.7730 0.7720 0.7720 0.7710 0.7700
679.833320 0.7700 0.7700 0.7710 0.7740 0.7760
683.078572 0.7780 0.7800 0.7820 0.7850 0.7880
686.323825 0.7900 0.7910 0.7920 0.7920 0.7930
689.569078 0.7930 0.7930 0.7940 0.7950 0.7950
692.814331 0.7950 0.7960 0.7960 0.7970 0.7970
696.059584 0.7970 0.7970 0.7970 0.7970 0.7980
699.304836 0.7990 0.7980 0.7980 0.7980 0.7980
702.550089 0.7990 0.7990 0.7990 0.7990 0.7990
705.795342 0.7990 0.7990 0.7990 0.7990 0.7990
709.040595 0.7990 0.7980 0.7980 0.7980 0.7980
712.285848 0.7980 0.7980 0.7990 0.7990 0.7990
715.531100 0.7990 0.7990 0.7990 0.7980 0.7980
718.776353 0.7980 0.7980 0.7980 0.7990 0.7990
722.021606 0.7990 0.8000 0.8000 0.8010 0.8020
725.266859 0.8020 0.8020 0.8030 0.8030 0.8040
728.512111 0.8040 0.8040 0.8040 0.8040 0.8040
731.757364 0.8040 0.8040 0.8040 0.8040 0.8040
735.002617 0.8050 0.8050 0.8050 0.8060 0.8060
738.247870 0.8060 0.8060 0.8060 0.8060 0.8060
741.493123 0.8060 0.8060 0.8060 0.8060 0.8060
744.738375 0.8060 0.8060 0.8060 0.8060 0.8060
747.983628 0.8060 0.8050 0.8050 0.8050 0.8050
751.228881 0.8060 0.8060 0.8060 0.8050 0.8050
754.474134 0.8050 0.8040 0.8040 0.8040 0.8030
757.719387 0.8030 0.8030 0.8020 0.8020 0.8020
760.964639 0.8010 0.8010 0.8010 0.8010 0.8000
764.209892 0.8000 0.7990 0.7990 0.7990 0.7990
767.455145 0.7970 0.7970 0.7960 0.7950 0.7940
770.700398 0.7940 0.7930 0.7910 0.7860 0.7860
773.945650 0.7840 0.7820 0.7790 0.7760 0.7730
777.190903 0.7700 0.7660 0.7630 0.7590 0.7560
780.436156 0.7530 0.7500 0.7430 0.7380 0.7340
783.681409 0.7320 0.7310 0.7300 0.7290 0.7300
786.926662 0.7310 0.7320 0.7370 0.7400 0.7440
790.171914 0.7470 0.7520 0.7560 0.7630 0.7700
793.417167 0.7740 0.7770 0.7790 0.7810 0.7840
796.662420 0.7870 0.7880 0.7900 0.7900 0.7910
799.907673 0.7920 0.7920 0.7930 0.7940 0.7950
803.152926 0.7970 0.7970 0.7980 0.7990 0.7990
806.398178 0.7990 0.7990 0.7990 0.7990 0.7990
809.643431 0.7990 0.7990 0.7980 0.7980 0.7980
812.888684 0.7980 0.7970 0.7970 0.7970 0.7970
816.133937 0.7970 0.7970 0.7980 0.7990 0.7990
819.379189 0.8000 0.8010 0.8020 0.8020 0.8030
822.624442 0.8030 0.8030 0.8030 0.8030 0.8020
825.869695 0.8020 0.8020 0.8020 0.8010 0.8010
829.114948 0.8010 0.8010 0.8010 0.7990 0.7990
832.360201 0.7990 0.7980 0.7970 0.7970 0.7950
835.605453 0.7950 0.7930 0.7930 0.7920 0.7900
838.850706 0.7890 0.7860 0.7840 0.7810 0.7770
842.095959 0.7740 0.7700 0.7660 0.7620 0.7570
845.341212 0.7520 0.7470 0.7420 0.7360 0.7310
848.586465 0.7200 0.7130 0.7070 0.7010 0.6940
851.831717 0.6880 0.6830 0.6800 0.6770 0.6750
855.076970 0.6740 0.6720 0.6700 0.6660 0.6660
858.322223 0.6650 0.6650 0.6650 0.6660 0.6670
861.567476 0.6680 0.6680 0.6700 0.6710 0.6720
864.812729 0.6730 0.6750 0.6760 0.6770 0.6790
868.057981 0.6830 0.6850 0.6860 0.6870 0.6880
871.303234 0.6900 0.6920 0.6930 0.6930 0.6930
874.548487 0.6940 0.6940 0.6950 0.6950 0.6950
877.793740 0.6950 0.6950 0.6950 0.6950 0.6950
881.038992 0.6950 0.6940 0.6930 0.6930 0.6920
884.284245 0.6910 0.6880 0.6860 0.6840 0.6810
887.529498 0.6790 0.6760 0.6710 0.6650 0.6600
890.774751 0.6540 0.6480 0.6430 0.6370 0.6320
894.020004 0.6270 0.6230 0.6180 0.6150 0.6140
897.265256 0.6140 0.6140 0.6140 0.6170 0.6190
900.510509 0.6230 0.6270 0.6300 0.6340 0.6380
903.755762 0.6420 0.6460 0.6500 0.6540 0.6580
907.001015 0.6620 0.6660 0.6700 0.6740 0.6790
910.246268 0.6830 0.6870 0.6910 0.6960 0.7000
913.491520 0.7040 0.7070 0.7110 0.7130 0.7160
916.736773 0.7180 0.7200 0.7210 0.7220 0.7250
919.982026 0.7270 0.7310 0.7340 0.7380 0.7410
923.227279 0.7430 0.7440 0.7450 0.7470 0.7480
926.472531 0.7500 0.7520 0.7540 0.7560 0.7580
929.717784 0.7590 0.7610 0.7630 0.7640 0.7680
932.963037 0.7720 0.7730 0.7740 0.7740 0.7740
936.208290 0.7750 0.7770 0.7770 0.7780 0.7780
939.453543 0.7790 0.7800 0.7810 0.7810 0.7820
942.698795 0.7830 0.7830 0.7830 0.7840 0.7850
945.944048 0.7860 0.7870 0.7880 0.7890 0.7900
949.189301 0.7900 0.7910 0.7910 0.7920 0.7920
952.434554 0.7920 0.7930 0.7930 0.7940 0.7940
955.679807 0.7950 0.7950 0.7950 0.7950 0.7950
958.925059 0.7960 0.7960 0.7960 0.7970 0.7970
962.170312 0.7970 0.7970 0.7980 0.7980 0.7980
965.415565 0.7980 0.7980 0.7980 0.7970 0.7970
968.660818 0.7970 0.7970 0.7970 0.7970 0.7970
971.906070 0.7970 0.7970 0.7970 0.7960 0.7960
975.151323 0.7960 0.7960 0.7950 0.7950 0.7950
978.396576 0.7950 0.7960 0.7960 0.7970 0.7970
981.641829 0.7970 0.7970 0.7980 0.7980 0.7990
984.887082 0.7990 0.7990 0.7990 0.8000 0.8000
988.132334 0.8010 0.8010 0.8020 0.8020 0.8030
991.377587 0.8030 0.8040 0.8040 0.8040 0.8050
994.622840 0.8050 0.8060 0.8060 0.8060 0.8060
997.868093 0.8060 0.8070 0.8070 0.8080 0.8080
1001.113346 0.8080 0.8080 0.8080 0.8080 0.8080
1004.358598 0.8070 0.8070 0.8070 0.8070 0.8060
1007.603851 0.8060 0.8060 0.8060 0.8040 0.8040
1010.849104 0.8040 0.8040 0.8030 0.8020 0.8020
1014.094357 0.8020 0.8020 0.8020 0.8030 0.8030
1017.339609 0.8040 0.8040 0.8040 0.8050 0.8050
1020.584862 0.8060 0.8060 0.8050 0.8040 0.8040
1023.830115 0.8040 0.8030 0.8030 0.8020 0.8020
1027.075368 0.8010 0.8010 0.8010 0.8000 0.8000
1030.320621 0.7990 0.7990 0.7990 0.7980 0.7970
1033.565873 0.7970 0.7970 0.7970 0.7970 0.7960
1036.811126 0.7950 0.7950 0.7940 0.7930 0.7930
1040.056379 0.7920 0.7920 0.7920 0.7910 0.7910
1043.301632 0.7900 0.7900 0.7890 0.7880 0.7860
1046.546885 0.7860 0.7860 0.7850 0.7840 0.7840
1049.792137 0.7840 0.7830 0.7830 0.7810 0.7790
1053.037390 0.7770 0.7760 0.7750 0.7750 0.7750
1056.282643 0.7740 0.7740 0.7720 0.7710 0.7700
1059.527896 0.7680 0.7670 0.7650 0.7630 0.7620
1062.773149 0.7610 0.7590 0.7580 0.7570 0.7560
1066.018401 0.7550 0.7540 0.7540 0.7530 0.7520
1069.263654 0.7520 0.7500 0.7500 0.7470 0.7430
1072.508907 0.7400 0.7360 0.7320 0.7290 0.7260
1075.754160 0.7180 0.7130 0.7070 0.7010 0.6930
1078.999412 0.6840 0.6720 0.6570 0.6220 0.6060
1082.244665 0.5820 0.5730 0.5610 0.5371 0.5260
1085.489918 0.5140 0.5020 0.4910 0.4780 0.4620
1088.735171 0.4440 0.4420 0.4440 0.4560 0.4700
1091.980424 0.4850 0.5140 0.5240 0.5300 0.5390
1095.225676 0.5480 0.5769 0.6009 0.6199 0.6290
1098.470929 0.6370 0.6460 0.6470 0.6520 0.6580
1101.716182 0.6640 0.6700 0.6750 0.6790 0.6820
1104.961435 0.6880 0.6950 0.7020 0.7060 0.7070
1108.206688 0.7110 0.7150 0.7180 0.7200 0.7210
1111.451940 0.7240 0.7270 0.7290 0.7320 0.7340
1114.697193 0.7350 0.7360 0.7380 0.7400 0.7440
1117.942446 0.7450 0.7460 0.7480 0.7490 0.7500
1121.187699 0.7510 0.7510 0.7520 0.7520 0.7520
1124.432951 0.7530 0.7530 0.7540 0.7540 0.7550
1127.678204 0.7560 0.7560 0.7560 0.7570 0.7580
1130.923457 0.7590 0.7590 0.7590 0.7590 0.7590
1134.168710 0.7590 0.7590 0.7590 0.7590 0.7590
1137.413963 0.7600 0.7600 0.7610 0.7610 0.7620
1140.659215 0.7630 0.7640 0.7650 0.7650 0.7650
1143.904468 0.7650 0.7650 0.7650 0.7640 0.7640
1147.149721 0.7630 0.7600 0.7590 0.7590 0.7570
1150.394974 0.7540 0.7520 0.7500 0.7470 0.7450
1153.640227 0.7450 0.7440 0.7430 0.7430 0.7420
1156.885479 0.7410 0.7410 0.7400 0.7390 0.7380
1160.130732 0.7360 0.7340 0.7340 0.7310 0.7310
1163.375985 0.7300 0.7290 0.7280 0.7270 0.7260
1166.621238 0.7250 0.7240 0.7220 0.7200 0.7180
1169.866490 0.7160 0.7140 0.7120 0.7100 0.7070
1173.111743 0.7050 0.7020 0.6980 0.6970 0.6930
1176.356996 0.6900 0.6870 0.6840 0.6820 0.6810
1179.602249 0.6750 0.6680 0.6620 0.6560 0.6500
1182.847502 0.6440 0.6370 0.6310 0.6250 0.6200
1186.092754 0.6110 0.6020 0.5920 0.5840 0.5770
1189.338007 0.5690 0.5600 0.5520 0.5370 0.5300
1192.583260 0.5250 0.5200 0.5170 0.5100 0.5060
1195.828513 0.5000 0.4910 0.4810 0.4690 0.4550
1199.073766 0.4400 0.4240 0.4060 0.3871 0.3461
1202.319018 0.3240 0.3020 0.2790 0.2560 0.2320
1205.564271 0.2080 0.1601 0.1360 0.1121 0.0891
1208.809524 0.0609 0.0390 0.0320 0.0290 0.0140
1212.054777 0.0100 0.0070 0.0010 0.0000 0.0000
1215.300029 0.0000 0.0000 0.0000 0.0000 0.0000
1218.545282 0.0020 0.0080 0.0140 0.0260 0.0390
1221.790535 0.0510 0.0600 0.0650 0.0970 0.1340
1225.035788 0.1689 0.1860 0.2030 0.2339 0.2609
1228.281041 0.2831 0.3250 0.3430 0.3610 0.3920
1231.526293 0.4190 0.4410 0.4600 0.4770 0.4910
1234.771546 0.5030 0.5150 0.5290 0.5370 0.5410
1238.016799 0.5450 0.5540 0.5640 0.5750 0.5860
1241.262052 0.5960 0.6050 0.6120 0.6170 0.6200
1244.507305 0.6250 0.6290 0.6350 0.6380 0.6440
1247.752557 0.6460 0.6470 0.6510 0.6530 0.6570
1250.997810 0.6630 0.6680 0.6720 0.6740 0.6770
1254.243063 0.6790 0.6800 0.6820 0.6830 0.6850
1257.488316 0.6860 0.6880 0.6890 0.6920 0.6950
1260.733568 0.6950 0.6960 0.6970 0.6970 0.6970
1263.978821 0.6980 0.6990 0.7000 0.7010 0.7030
1267.224074 0.7040 0.7060 0.7070 0.7070 0.7080
1270.469327 0.7090 0.7090 0.7100 0.7100 0.7110
1273.714580 0.7110 0.7110 0.7110 0.7110 0.7110
1276.959832 0.7110 0.7110 0.7110 0.7100 0.7100
1280.205085 0.7100 0.7090 0.7090 0.7070 0.7060
1283.450338 0.7060 0.7060 0.7060 0.7040 0.7040
1286.695591 0.7020 0.7020 0.7000 0.6990 0.6990
1289.940844 0.6980 0.6970 0.6960 0.6940 0.6910
1293.186096 0.6900 0.6890 0.6880 0.6870 0.6860
1296.431349 0.6850 0.6840 0.6830 0.6820 0.6790
1299.676602 0.6770 0.6750 0.6720 0.6690 0.6660
1302.921855 0.6630 0.6600 0.6570 0.6540 0.6520
1306.167108 0.6500 0.6480 0.6460 0.6430 0.6410
1309.412360 0.6370 0.6340 0.6290 0.6250 0.6210
1312.657613 0.6170 0.6120 0.6090 0.6050 0.6010
1315.902866 0.5980 0.5940 0.5900 0.5850 0.5800
1319.148119 0.5750 0.5690 0.5640 0.5580 0.5530
1322.393371 0.5460 0.5350 0.5280 0.5220 0.5160
1325.638624 0.5090 0.5020 0.4950 0.4890 0.4810
1328.883877 0.4740 0.4660 0.4580 0.4510 0.4420
1332.129130 0.4350 0.4260 0.4170 0.4140 0.4070
1335.374383 0.3990 0.3870 0.3600 0.3440 0.3260
1338.619635 0.3080 0.2880 0.2680 0.2480 0.2270
1341.864888 0.2070 0.1680 0.1490 0.1320 0.1160
1345.110141 0.1000 0.0960 0.0750 0.0530 0.0340
1348.355394 0.0290 0.0230 0.0160 0.0100 0.0080
1351.600647 0.0040 0.0030 0.0010 0.0010 0.0010
1354.845899 0.0010 0.0010 0.0010 0.0010 0.0010
1358.091152 0.0020 0.0030 0.0040 0.0050 0.0090
1361.336405 0.0150 0.0210 0.0260 0.0320 0.0360
1364.581658 0.0400 0.0490 0.0570 0.0670 0.0790
1367.826910 0.0920 0.1070 0.1210 0.1360 0.1500
1371.072163 0.1630 0.1740 0.1790 0.1840 0.1900
1374.317416 0.2000 0.2080 0.2170 0.2250 0.2340
1377.562669 0.2410 0.2500 0.2580 0.2650 0.2720
1380.807922 0.2790 0.2870 0.2930 0.3010 0.3070
1384.053174 0.3140 0.3200 0.3260 0.3360 0.3410
1387.298427 0.3440 0.3470 0.3510 0.3570 0.3580
1390.543680 0.3600 0.3600 0.3610 0.3620 0.3620
1393.788933 0.3620 0.3620 0.3610 0.3610 0.3610
1397.034186 0.3590 0.3580 0.3570 0.3560 0.3530
1400.279438 0.3460 0.3400 0.3330 0.3260 0.3200
1403.524691 0.3140 0.3080 0.3040 0.2990 0.2970
1406.769944 0.2920 0.2860 0.2790 0.2700 0.2610
1410.015197 0.2500 0.2400 0.2290 0.2180 0.2070
1413.260449 0.1970 0.1880 0.1740 0.1690 0.1660
1416.505702 0.1640 0.1640 0.1630 0.1640 0.1650
1419.750955 0.1670 0.1690 0.1720 0.1730 0.1750
1422.996208 0.1780 0.1790 0.1800 0.1820 0.1840
1426.241461 0.1850 0.1860 0.1880 0.1880 0.1880
1429.486713 0.1860 0.1850 0.1790 0.1740 0.1720
1432.731966 0.1720 0.1710 0.1710 0.1700 0.1700
1435.977219 0.1700 0.1710 0.1740 0.1770 0.1790
1439.222472 0.1820 0.1870 0.1920 0.1970 0.2010
1442.467725 0.2100 0.2190 0.2240 0.2250 0.2370
1445.712977 0.2400 0.2480 0.2590 0.2600 0.2740
1448.958230 0.2900 0.2960 0.2980 0.3020 0.3060
1452.203483 0.3170 0.3270 0.3360 0.3450 0.3530
1455.448736 0.3570 0.3600 0.3670 0.3730 0.3790
1458.693988 0.3850 0.3910 0.3970 0.4050 0.4120
1461.939241 0.4190 0.4260 0.4330 0.4390 0.4460
1465.184494 0.4510 0.4560 0.4610 0.4660 0.4700
1468.429747 0.4740 0.4780 0.4800 0.4870 0.4920
1471.675000 0.4940 0.4960 0.4980 0.4980 0.4980
1474.920252 0.4980 0.5000 0.5010 0.5040 0.5060
1478.165505 0.5070 0.5070 0.5070 0.5070 0.5080
1481.410758 0.5130 0.5160 0.5190 0.5210 0.5220
1484.656011 0.5230 0.5250 0.5260 0.5280 0.5280
1487.901264 0.5290 0.5310 0.5330 0.5350 0.5360
1491.146516 0.5370 0.5390 0.5390 0.5390 0.5400
1494.391769 0.5400 0.5400 0.5400 0.5400 0.5400
1497.637022 0.5390 0.5390 0.5380 0.5380 0.5360
1500.882275 0.5350 0.5320 0.5300 0.5280 0.5270
1504.127528 0.5260 0.5260 0.5250 0.5230 0.5210
1507.372780 0.5170 0.5180 0.5170 0.5150 0.5130
1510.618033 0.5110 0.5090 0.5080 0.5060 0.5040
1513.863286 0.5030 0.5010 0.5000 0.4990 0.4980
1517.108539 0.4970 0.4960 0.4940 0.4920 0.4900
1520.353791 0.4870 0.4850 0.4830 0.4820 0.4800
1523.599044 0.4800 0.4780 0.4750 0.4730 0.4710
1526.844297 0.4700 0.4680 0.4660 0.4640 0.4620
1530.089550 0.4590 0.4560 0.4520 0.4480 0.4430
1533.334803 0.4400 0.4380 0.4320 0.4300 0.4270
1536.580055 0.4240 0.4210 0.4170 0.4140 0.4100
1539.825308 0.4060 0.4030 0.3990 0.3960 0.3920
1543.070561 0.3890 0.3850 0.3820 0.3790 0.3760
1546.315814 0.3740 0.3700 0.3690 0.3670 0.3650
1549.561067 0.3630 0.3590 0.3580 0.3570 0.3560
1552.806319 0.3560 0.3570 0.3580 0.3600 0.3600
1556.051572 0.3600 0.3620 0.3630 0.3660 0.3670
1559.296825 0.3680 0.3690 0.3730 0.3790 0.3880
1562.542078 0.3920 0.3950 0.3960 0.3980 0.4010
1565.787330 0.4060 0.4100 0.4140 0.4170 0.4210
1569.032583 0.4240 0.4270 0.4300 0.4340 0.4370
1572.277836 0.4410 0.4440 0.4460 0.4480 0.4490
1575.523089 0.4490 0.4510 0.4530 0.4550 0.4570
1578.768342 0.4580 0.4590 0.4600 0.4640 0.4650
1582.013594 0.4670 0.4680 0.4690 0.4710 0.4730
1585.258847 0.4740 0.4770 0.4790 0.4800 0.4820
1588.504100 0.4830 0.4860 0.4880 0.4920 0.4980
1591.749353 0.5010 0.5050 0.5100 0.5120 0.5140
1594.994606 0.5190 0.5230 0.5260 0.5290 0.5320
1598.239858 0.5340 0.5370 0.5390 0.5410 0.5460
1601.485111 0.5530 0.5600 0.5660 0.5690 0.5730
1604.730364 0.5770 0.5780 0.5800 0.5820 0.5840
1607.975617 0.5870 0.5890 0.5930 0.5940 0.5990
1611.220869 0.6040 0.6090 0.6140 0.6180 0.6200
1614.466122 0.6210 0.6250 0.6260 0.6270 0.6270
1617.711375 0.6280 0.6290 0.6300 0.6310 0.6320
1620.956628 0.6340 0.6360 0.6370 0.6380 0.6390
1624.201881 0.6400 0.6410 0.6410 0.6420 0.6420
1627.447133 0.6430 0.6440 0.6450 0.6460 0.6470
1630.692386 0.6480 0.6480 0.6480 0.6480 0.6490
1633.937639 0.6490 0.6480 0.6480 0.6480 0.6470
1637.182892 0.6470 0.6460 0.6460 0.6470 0.6480
1640.428145 0.6480 0.6480 0.6490 0.6490 0.6490
1643.673397 0.6490 0.6490 0.6490 0.6490 0.6490
1646.918650 0.6490 0.6480 0.6480 0.6480 0.6460
1650.163903 0.6450 0.6430 0.6410 0.6400 0.6390
1653.409156 0.6370 0.6360 0.6350 0.6340 0.6330
1656.654408 0.6320 0.6310 0.6300 0.6290 0.6280
1659.899661 0.6270 0.6260 0.6250 0.6230 0.6180
1663.144914 0.6140 0.6110 0.6080 0.6060 0.6030
1666.390167 0.6010 0.5980 0.5960 0.5930 0.5890
1669.635420 0.5840 0.5820 0.5770 0.5710 0.5640
1672.880672 0.5570 0.5500 0.5380 0.5320 0.5230
1676.125925 0.5140 0.5050 0.4950 0.4850 0.4740
1679.371178 0.4640 0.4540 0.4440 0.4350 0.4290
1682.616431 0.4280 0.4280 0.4290 0.4300 0.4310
1685.861684 0.4310 0.4310 0.4310 0.4300 0.4300
1689.106936 0.4300 0.4290 0.4250 0.4170 0.4080
1692.352189 0.3990 0.3910 0.3830 0.3740 0.3560
1695.597442 0.3460 0.3360 0.3240 0.3110 0.2980
1698.842695 0.2830 0.2670 0.2490 0.2290 0.1761
1702.087947 0.1529 0.1319 0.1120 0.0940 0.0790
1705.333200 0.0650 0.0530 0.0420 0.0330 0.0250
1708.578453 0.0190 0.0140 0.0100 0.0060 0.0050
1711.823706 0.0040 0.0030 0.0030 0.0020 0.0010
1715.068959 0.0010 0.0010 0.0010 0.0010 0.0000
1718.314211 0.0000 0.0000 0.0000 0.0000 0.0010
1721.559464 0.0010 0.0010 0.0010 0.0010 0.0010
1724.804717 0.0020 0.0020 0.0030 0.0050 0.0060
1728.049970 0.0070 0.0080 0.0130 0.0170 0.0210
1731.295223 0.0220 0.0290 0.0420 0.0520 0.0620
1734.540475 0.0690 0.0770 0.0820 0.0880 0.0930
1737.785728 0.0970 0.1020 0.1060 0.1110 0.1160
1741.030981 0.1220 0.1230 0.1230 0.1230 0.1230
1744.276234 0.1210 0.1180 0.1160 0.1140 0.1130
1747.521487 0.1130 0.1120 0.1120 0.1120 0.1140
1750.766739 0.1210 0.1310 0.1420 0.1540 0.1660
1754.011992 0.1790 0.1860 0.1930 0.2070 0.2210
1757.257245 0.2350 0.2490 0.2620 0.2740 0.2860
1760.502498 0.3080 0.3250 0.3400 0.3510 0.3560
1763.747750 0.3620 0.3700 0.3780 0.3870 0.3960
1766.993003 0.4050 0.4150 0.4240 0.4310 0.4370
1770.238256 0.4430 0.4490 0.4560 0.4620 0.4670
1773.483509 0.4710 0.4750 0.4780 0.4800 0.4820
1776.728762 0.4850 0.4880 0.4910 0.4940 0.4970
1779.974014 0.4990 0.5010 0.5030 0.5030 0.5080
1783.219267 0.5120 0.5140 0.5140 0.5140 0.5140
1786.464520 0.5160 0.5170 0.5190 0.5190 0.5210
1789.709773 0.5220 0.5220 0.5230 0.5240 0.5250
1792.955026 0.5290 0.5350 0.5390 0.5400 0.5400
1796.200278 0.5430 0.5460 0.5480 0.5500 0.5530
1799.445531 0.5580 0.5600 0.5640 0.5680 0.5720
1802.690784 0.5770 0.5820 0.5850 0.5870 0.5910
1805.936037 0.5930 0.5960 0.5990 0.6020 0.6050
1809.181289 0.6070 0.6110 0.6140 0.6170 0.6200
1812.426542 0.6230 0.6270 0.6300 0.6340 0.6350
1815.671795 0.6360 0.6370 0.6390 0.6410 0.6440
1818.917048 0.6460 0.6490 0.6520 0.6550 0.6580
1822.162301 0.6600 0.6640 0.6670 0.6680 0.6700
1825.407553 0.6700 0.6710 0.6710 0.6720 0.6720
1828.652806 0.6730 0.6750 0.6780 0.6820 0.6830
1831.898059 0.6840 0.6850 0.6860 0.6860 0.6870
1835.143312 0.6880 0.6880 0.6890 0.6900 0.6910
1838.388565 0.6910 0.6920 0.6920 0.6930 0.6930
1841.633817 0.6930 0.6930 0.6930 0.6950 0.6960
1844.879070 0.6960 0.6970 0.6970 0.6970 0.6980
1848.124323 0.6990 0.7000 0.7020 0.7040 0.7050
1851.369576 0.7070 0.7080 0.7090 0.7110 0.7110
1854.614828 0.7120 0.7120 0.7130 0.7130 0.7130
1857.860081 0.7140 0.7150 0.7150 0.7160 0.7170
1861.105334 0.7180 0.7200 0.7200 0.7200 0.7220
1864.350587 0.7220 0.7220 0.7230 0.7230 0.7240
1867.595840 0.7240 0.7240 0.7240 0.7230 0.7230
1870.841092 0.7220 0.7220 0.7220 0.7220 0.7220
1874.086345 0.7210 0.7210 0.7210 0.7210 0.7210
1877.331598 0.7220 0.7220 0.7220 0.7230 0.7240
1880.576851 0.7240 0.7240 0.7240 0.7250 0.7250
1883.822104 0.7250 0.7260 0.7260 0.7260 0.7270
1887.067356 0.7270 0.7270 0.7270 0.7280 0.7280
1890.312609 0.7290 0.7290 0.7290 0.7290 0.7290
1893.557862 0.7290 0.7290 0.7290 0.7290 0.7290
1896.803115 0.7290 0.7300 0.7300 0.7300 0.7300
1900.048367 0.7300 0.7310 0.7310 0.7310 0.7310
1903.293620 0.7310 0.7310 0.7310 0.7310 0.7320
1906.538873 0.7320 0.7320 0.7320 0.7320 0.7320
1909.784126 0.7330 0.7330 0.7330 0.7340 0.7340
1913.029379 0.7340 0.7340 0.7340 0.7350 0.7350
1916.274631 0.7360 0.7360 0.7360 0.7360 0.7360
1919.519884 0.7360 0.7360 0.7360 0.7360 0.7360
1922.765137 0.7360 0.7360 0.7360 0.7360 0.7360
1926.010390 0.7360 0.7360 0.7350 0.7350 0.7350
1929.255643 0.7350 0.7340 0.7340 0.7340 0.7340
1932.500895 0.7340 0.7340 0.7330 0.7320 0.7320
1935.746148 0.7320 0.7320 0.7310 0.7310 0.7310
1938.991401 0.7310 0.7300 0.7300 0.7290 0.7290
1942.236654 0.7290 0.7290 0.7290 0.7290 0.7290
1945.481907 0.7290 0.7300 0.7300 0.7310 0.7310
1948.727159 0.7310 0.7310 0.7320 0.7320 0.7320
1951.972412 0.7320 0.7320 0.7320 0.7330 0.7330
1955.217665 0.7330 0.7340 0.7340 0.7340 0.7340
1958.462918 0.7340 0.7340 0.7350 0.7350 0.7350
1961.708170 0.7350 0.7360 0.7360 0.7360 0.7360
1964.953423 0.7360 0.7360 0.7360 0.7360 0.7360
1968.198676 0.7360 0.7350 0.7350 0.7350 0.7350
1971.443929 0.7350 0.7340 0.7340 0.7340 0.7340
1974.689182 0.7340 0.7340 0.7340 0.7340 0.7340
1977.934434 0.7340 0.7340 0.7330 0.7330 0.7330
1981.179687 0.7330 0.7320 0.7320 0.7320 0.7310
1984.424940 0.7310 0.7310 0.7300 0.7300 0.7290
1987.670193 0.7290 0.7290 0.7290 0.7290 0.7290
1990.915446 0.7290 0.7280 0.7280 0.7280 0.7270
1994.160698 0.7270 0.7270 0.7270 0.7270 0.7270
1997.405951 0.7260 0.7260 0.7260 0.7250 0.7250
2000.651204 0.7250 0.7250 0.7250 0.7250 0.7250
2003.896457 0.7250 0.7250 0.7250 0.7250 0.7250
2007.141709 0.7250 0.7250 0.7250 0.7250 0.7250
2010.386962 0.7250 0.7250 0.7250 0.7250 0.7250
2013.632215 0.7250 0.7250 0.7250 0.7250 0.7250
2016.877468 0.7250 0.7250 0.7252 0.7255 0.7257
2020.122721 0.7260 0.7260 0.7260 0.7260 0.7260
2023.367973 0.7263 0.7265 0.7268 0.7270 0.7270
2026.613226 0.7270 0.7270 0.7271 0.7273 0.7276
2029.858479 0.7278 0.7280 0.7280 0.7280 0.7280
2033.103732 0.7281 0.7284 0.7286 0.7289 0.7290
2036.348985 0.7290 0.7290 0.7290 0.7292 0.7294
2039.594237 0.7297 0.7299 0.7300 0.7300 0.7300
2042.839490 0.7300 0.7302 0.7305 0.7307 0.7310
2046.084743 0.7310 0.7310 0.7310 0.7310 0.7310
2049.329996 0.7310 0.7310 0.7311 0.7313 0.7316
2052.575248 0.7318 0.7320 0.7320 0.7320 0.7320
2055.820501 0.7320 0.7320 0.7320 0.7320 0.7321
2059.065754 0.7324 0.7327 0.7329 0.7330 0.7330
2062.311007 0.7330 0.7330 0.7330 0.7330 0.7330
2065.556260 0.7330 0.7330 0.7330 0.7330 0.7330
2068.801512 0.7330 0.7330 0.7330 0.7330 0.7333
2072.046765 0.7335 0.7338 0.7340 0.7340 0.7340
2075.292018 0.7340 0.7340 0.7340 0.7340 0.7340
2078.537271 0.7340 0.7340 0.7340 0.7340 0.7340
2081.782524 0.7340 0.7340 0.7340 0.7340 0.7340
2085.027776 0.7340 0.7340 0.7340 0.7340 0.7340
2088.273029 0.7340 0.7340 0.7340 0.7340 0.7340
2091.518282 0.7340 0.7340 0.7340 0.7340 0.7340
2094.763535 0.7340 0.7340 0.7340 0.7340 0.7340
2098.008787 0.7340 0.7340 0.7340 0.7340 0.7340
2101.254040 0.7340 0.7340 0.7340 0.7340 0.7340
2104.499293 0.7340 0.7340 0.7340 0.7340 0.7340
2107.744546 0.7340 0.7340 0.7340 0.7340 0.7340
2110.989799 0.7340 0.7340 0.7340 0.7340 0.7340
2114.235051 0.7340 0.7340 0.7340 0.7340 0.7340
2117.480304 0.7340 0.7340 0.7340 0.7340 0.7340
2120.725557 0.7340 0.7339 0.7337 0.7334 0.7331
2123.970810 0.7330 0.7330 0.7330 0.7330 0.7328
2127.216063 0.7326 0.7323 0.7321 0.7320 0.7320
2130.461315 0.7320 0.7320 0.7318 0.7315 0.7313
2133.706568 0.7310 0.7310 0.7310 0.7310 0.7310
2136.951821 0.7310 0.7310 0.7310 0.7309 0.7304
2140.197074 0.7299 0.7294 0.7290 0.7290 0.7290
2143.442326 0.7290 0.7291 0.7293 0.7296 0.7299
2146.687579 0.7301 0.7304 0.7306 0.7309 0.7310
2149.932832 0.7310 0.7310 0.7310 0.7310 0.7310
2153.178085 0.7310 0.7310 0.7312 0.7315 0.7317
2156.423338 0.7320 0.7322 0.7325 0.7328 0.7330
2159.668590 0.7333 0.7335 0.7338 0.7340 0.7340
2162.913843 0.7340 0.7340 0.7340 0.7340 0.7340
2166.159096 0.7340 0.7340 0.7340 0.7340 0.7340
2169.404349 0.7341 0.7344 0.7346 0.7349 0.7350
2172.649602 0.7350 0.7350 0.7350 0.7350 0.7350
2175.894854 0.7350 0.7350 0.7352 0.7355 0.7357
2179.140107 0.7360 0.7360 0.7360 0.7360 0.7360
2182.385360 0.7360 0.7360 0.7360 0.7360 0.7360
2185.630613 0.7360 0.7360 0.7360 0.7360 0.7360
2188.875866 0.7360 0.7360 0.7360 0.7360 0.7360
2192.121118 0.7360 0.7360 0.7360 0.7360 0.7360
2195.366371 0.7360 0.7360 0.7360 0.7360 0.7360
2198.611624 0.7360 0.7360 0.7362 0.7365 0.7367
2201.856877 0.7370 0.7370 0.7370 0.7370 0.7370
2205.102129 0.7370 0.7370 0.7370 0.7370 0.7370
2208.347382 0.7370 0.7370 0.7370 0.7370 0.7370
2211.592635 0.7370 0.7370 0.7370 0.7370 0.7370
2214.837888 0.7370 0.7370 0.7370 0.7370 0.7370
2218.083141 0.7370 0.7370 0.7370 0.7370 0.7370
2221.328393 0.7370 0.7370 0.7370 0.7370 0.7370
2224.573646 0.7370 0.7370 0.7370 0.7370 0.7370
2227.818899 0.7370 0.7370 0.7370 0.7370 0.7370
2231.064152 0.7370 0.7370 0.7369 0.7367 0.7364
2234.309405 0.7362 0.7360 0.7360 0.7360 0.7360
2237.554657 0.7360 0.7360 0.7360 0.7360 0.7360
2240.799910 0.7360 0.7360 0.7360 0.7360 0.7360
2244.045163 0.7360 0.7360 0.7358 0.7355 0.7353
2247.290416 0.7350 0.7348 0.7345 0.7343 0.7340
2250.535668 0.7340 0.7340 0.7340 0.7340 0.7340
2253.780921 0.7340 0.7340 0.7339 0.7337 0.7334
2257.026174 0.7332 0.7330 0.7330 0.7330 0.7330
2260.271427 0.7329 0.7326 0.7324 0.7321 0.7320
2263.516680 0.7320 0.7320 0.7320 0.7318 0.7316
2266.761932 0.7313 0.7310 0.7310 0.7310 0.7310
2270.007185 0.7310 0.7310 0.7310 0.7310 0.7310
2273.252438 0.7307 0.7305 0.7302 0.7300 0.7297
2276.497691 0.7294 0.7292 0.7290 0.7290 0.7290
2279.742944 0.7290 0.7289 0.7286 0.7284 0.7281
2282.988196 0.7280 0.7280 0.7280 0.7280 0.7278
2286.233449 0.7276 0.7273 0.7271 0.7270 0.7270
2289.478702 0.7270 0.7270 0.7272 0.7275 0.7277
2292.723955 0.7280 0.7280 0.7280 0.7280 0.7280
2295.969207 0.7283 0.7285 0.7288 0.7290 0.7290
2299.214460 0.7290 0.7290 0.7291 0.7293 0.7296
2302.459713 0.7298 0.7301 0.7304 0.7306 0.7309
2305.704966 0.7311 0.7314 0.7316 0.7319 0.7320
2308.950219 0.7320 0.7320 0.7320 0.7320 0.7320
2312.195471 0.7320 0.7320 0.7322 0.7325 0.7327
2315.440724 0.7330 0.7330 0.7330 0.7330 0.7330
2318.685977 0.7330 0.7330 0.7330 0.7330 0.7333
2321.931230 0.7336 0.7338 0.7340 0.7340 0.7340
2325.176483 0.7340 0.7340 0.7340 0.7340 0.7340
2328.421735 0.7340 0.7340 0.7340 0.7340 0.7340
2331.666988 0.7340 0.7340 0.7340 0.7340 0.7340
2334.912241 0.7340 0.7340 0.7340 0.7340 0.7340
2338.157494 0.7340 0.7340 0.7340 0.7340 0.7340
2341.402746 0.7340 0.7340 0.7340 0.7340 0.7340
2344.647999 0.7340 0.7340 0.7340 0.7340 0.7340
2347.893252 0.7340 0.7340 0.7340 0.7340 0.7340
2351.138505 0.7340 0.7340 0.7340 0.7340 0.7340
2354.383758 0.7340 0.7340 0.7340 0.7340 0.7340
2357.629010 0.7340 0.7340 0.7340 0.7340 0.7340
2360.874263 0.7340 0.7340 0.7340 0.7340 0.7340
2364.119516 0.7340 0.7340 0.7340 0.7340 0.7340
2367.364769 0.7340 0.7340 0.7340 0.7340 0.7340
2370.610022 0.7340 0.7340 0.7340 0.7340 0.7340
2373.855274 0.7341 0.7344 0.7346 0.7349 0.7352
2377.100527 0.7354 0.7357 0.7359 0.7360 0.7360
2380.345780 0.7360 0.7360 0.7360 0.7360 0.7360
2383.591033 0.7360 0.7363 0.7365 0.7368 0.7370
2386.836286 0.7373 0.7375 0.7378 0.7380 0.7380
2390.081538 0.7380 0.7380 0.7382 0.7387 0.7392
2393.326791 0.7397 0.7401 0.7404 0.7406 0.7409
2396.572044 0.7413 0.7418 0.7423 0.7428 0.7430
2399.817297 0.7430 0.7430 0.7430 0.7434 0.7439
2403.062549 0.7444 0.7449 0.7452 0.7455 0.7457
2406.307802 0.7460 0.7463 0.7465 0.7468 0.7470
2409.553055 0.7470 0.7470 0.7470 0.7470 0.7470
2412.798308 0.7470 0.7470 0.7470 0.7470 0.7470
2416.043561 0.7470 0.7471 0.7474 0.7476 0.7479
2419.288813 0.7480 0.7480 0.7480 0.7480 0.7480
2422.534066 0.7480 0.7480 0.7480 0.7480 0.7480
2425.779319 0.7480 0.7480 0.7480 0.7480 0.7480
2429.024572 0.7480 0.7480 0.7480 0.7480 0.7480
2432.269825 0.7477 0.7475 0.7472 0.7470 0.7470
2435.515077 0.7470 0.7470 0.7470 0.7470 0.7470
2438.760330 0.7470 0.7469 0.7466 0.7464 0.7461
2442.005583 0.7459 0.7456 0.7453 0.7451 0.7450
2445.250836 0.7450 0.7450 0.7450 0.7446 0.7441
2448.496088 0.7436 0.7431 0.7428 0.7425 0.7423
2451.741341 0.7420 0.7417 0.7415 0.7412 0.7410
2454.986594 0.7410 0.7410 0.7410 0.7411 0.7413
2458.231847 0.7416 0.7418 0.7420 0.7420 0.7420
2461.477100 0.7420 0.7421 0.7424 0.7426 0.7429
2464.722352 0.7431 0.7434 0.7437 0.7439 0.7442
2467.967605 0.7444 0.7447 0.7449 0.7452 0.7455
2471.212858 0.7457 0.7460 0.7462 0.7465 0.7467
2474.458111 0.7470 0.7470 0.7470 0.7470 0.7470
2477.703364 0.7470 0.7470 0.7470 0.7471 0.7473
2480.948616 0.7476 0.7478 0.7480 0.7480 0.7480
2484.193869 0.7480 0.7480 0.7480 0.7480 0.7480
2487.439122 0.7481 0.7484 0.7487 0.7489 0.7490
2490.684375 0.7490 0.7490 0.7490 0.7490 0.7490
2493.929627 0.7490 0.7490 0.7490 0.7490 0.7490
2497.174880 0.7490 0.7490 0.7490 0.7490 0.7490
2500.420133 0.7490 0.7490 0.7490 0.7490 0.7490
2503.665386 0.7490 0.7490 0.7491 0.7493 0.7496
2506.910639 0.7499 0.7500 0.7500 0.7500 0.7500
2510.155891 0.7500 0.7500 0.7500 0.7500 0.7500
2513.401144 0.7500 0.7500 0.7500 0.7500 0.7500
2516.646397 0.7500 0.7500 0.7500 0.7500 0.7500
2519.891650 0.7500 0.7500 0.7500 0.7500 0.7500
2523.136903 0.7500 0.7500 0.7500 0.7500 0.7500
2526.382155 0.7500 0.7500 0.7500 0.7500 0.7500
2529.627408 0.7500 0.7500 0.7500 0.7500 0.7500
2532.872661 0.7500 0.7500 0.7500 0.7500 0.7498
2536.117914 0.7496 0.7493 0.7491 0.7490 0.7490
2539.363166 0.7490 0.7490 0.7490 0.7490 0.7490
2542.608419 0.7490 0.7490 0.7490 0.7490 0.7490
2545.853672 0.7490 0.7490 0.7490 0.7490 0.7490
2549.098925 0.7490 0.7490 0.7489 0.7487 0.7484
2552.344178 0.7481 0.7480 0.7480 0.7480 0.7480
2555.589430 0.7480 0.7480 0.7480 0.7480 0.7480
2558.834683 0.7480 0.7480 0.7480 0.7478 0.7475
2562.079936 0.7473 0.7470 0.7470 0.7470 0.7470
2565.325189 0.7470 0.7467 0.7465 0.7462 0.7460
2568.570442 0.7457 0.7455 0.7452 0.7449 0.7444
2571.815694 0.7439 0.7433 0.7428 0.7423 0.7418
2575.060947 0.7413 0.7409 0.7406 0.7404 0.7401
2578.306200 0.7394 0.7384 0.7373 0.7363 0.7353
2581.551453 0.7342 0.7332 0.7322 0.7312 0.7301
2584.796705 0.7291 0.7281 0.7273 0.7265 0.7257
2588.041958 0.7250 0.7247 0.7245 0.7242 0.7240
2591.287211 0.7240 0.7240 0.7240 0.7240 0.7240
2594.532464 0.7240 0.7240 0.7243 0.7250 0.7258
2597.777717 0.7266 0.7272 0.7277 0.7283 0.7288
2601.022969 0.7297 0.7310 0.7323 0.7336 0.7347
2604.268222 0.7357 0.7368 0.7378 0.7386 0.7394
2607.513475 0.7402 0.7410 0.7420 0.7430 0.7440
2610.758728 0.7450 0.7453 0.7455 0.7458 0.7461
2614.003981 0.7466 0.7471 0.7476 0.7481 0.7483
2617.249233 0.7486 0.7488 0.7490 0.7490 0.7490
2620.494486 0.7490 0.7490 0.7490 0.7490 0.7490
2623.739739 0.7491 0.7494 0.7497 0.7499 0.7500
2626.984992 0.7500 0.7500 0.7500 0.7500 0.7500
2630.230245 0.7500 0.7500 0.7500 0.7500 0.7500
2633.475497 0.7500 0.7500 0.7500 0.7500 0.7500
2636.720750 0.7500 0.7500 0.7500 0.7500 0.7500
2639.966003 0.7500 0.7500 0.7500 0.7500 0.7500
2643.211256 0.7500 0.7500 0.7500 0.7500 0.7500
2646.456508 0.7500 0.7500 0.7500 0.7500 0.7498
2649.701761 0.7496 0.7493 0.7491 0.7490 0.7490
2652.947014 0.7490 0.7490 0.7490 0.7490 0.7490
2656.192267 0.7490 0.7490 0.7490 0.7490 0.7490
2659.437520 0.7490 0.7490 0.7490 0.7489 0.7487
2662.682772 0.7484 0.7482 0.7480 0.7480 0.7480
2665.928025 0.7480 0.7480 0.7480 0.7480 0.7480
2669.173278 0.7478 0.7476 0.7473 0.7471 0.7470
2672.418531 0.7470 0.7470 0.7470 0.7468 0.7465
2675.663784 0.7463 0.7460 0.7460 0.7460 0.7460
2678.909036 0.7460 0.7457 0.7455 0.7452 0.7450
2682.154289 0.7450 0.7450 0.7450 0.7450 0.7450
2685.399542 0.7450 0.7450 0.7450 0.7450 0.7450
2688.644795 0.7450 0.7449 0.7446 0.7444 0.7441
2691.890047 0.7440 0.7440 0.7440 0.7440 0.7438
2695.135300 0.7436 0.7433 0.7430 0.7430 0.7430
2698.380553 0.7430 0.7430 0.7430 0.7430 0.7430
2701.625806 0.7430 0.7430 0.7430 0.7430 0.7430
2704.871059 0.7430 0.7430 0.7430 0.7430 0.7430
2708.116311 0.7430 0.7430 0.7429 0.7426 0.7424
2711.361564 0.7421 0.7420 0.7420 0.7420 0.7420
2714.606817 0.7420 0.7420 0.7420 0.7420 0.7420
2717.852070 0.7420 0.7420 0.7420 0.7420 0.7420
2721.097323 0.7420 0.7420 0.7420 0.7420 0.7420
2724.342575 0.7420 0.7420 0.7420 0.7420 0.7420
2727.587828 0.7420 0.7420 0.7420 0.7420 0.7420
2730.833081 0.7420 0.7420 0.7419 0.7416 0.7414
2734.078334 0.7411 0.7410 0.7410 0.7410 0.7410
2737.323586 0.7410 0.7410 0.7410 0.7410 0.7410
2740.568839 0.7410 0.7410 0.7410 0.7408 0.7405
2743.814092 0.7403 0.7400 0.7400 0.7400 0.7400
2747.059345 0.7400 0.7400 0.7400 0.7400 0.7400
2750.304598 0.7400 0.7400 0.7400 0.7399 0.7397
2753.549850 0.7394 0.7392 0.7390 0.7390 0.7390
2756.795103 0.7390 0.7389 0.7386 0.7383 0.7381
2760.040356 0.7380 0.7380 0.7380 0.7380 0.7378
2763.285609 0.7376 0.7373 0.7370 0.7368 0.7365
2766.530862 0.7363 0.7360 0.7355 0.7350 0.7345
2769.776114 0.7340 0.7335 0.7329 0.7324 0.7320
2773.021367 0.7317 0.7314 0.7312 0.7308 0.7300
2776.266620 0.7292 0.7285 0.7272 0.7251 0.7231
2779.511873 0.7210 0.7199 0.7196 0.7194 0.7191
2782.757125 0.7188 0.7186 0.7183 0.7181 0.7164
2786.002378 0.7144 0.7123 0.7103 0.7096 0.7090
2789.247631 0.7085 0.7080 0.7077 0.7075 0.7072
2792.492884 0.7070 0.7073 0.7075 0.7078 0.7080
2795.738137 0.7083 0.7086 0.7088 0.7091 0.7097
2798.983389 0.7102 0.7107 0.7111 0.7114 0.7116
2802.228642 0.7119 0.7123 0.7128 0.7133 0.7138
2805.473895 0.7142 0.7144 0.7147 0.7149 0.7156
2808.719148 0.7164 0.7171 0.7179 0.7180 0.7180
2811.964401 0.7180 0.7180 0.7180 0.7180 0.7180
2815.209653 0.7180 0.7183 0.7185 0.7188 0.7190
2818.454906 0.7190 0.7190 0.7190 0.7190 0.7190
2821.700159 0.7190 0.7190 0.7190 0.7190 0.7190
2824.945412 0.7190 0.7189 0.7186 0.7184 0.7181
2828.190664 0.7180 0.7180 0.7180 0.7180 0.7180
2831.435917 0.7180 0.7180 0.7180 0.7178 0.7175
2834.681170 0.7173 0.7170 0.7167 0.7165 0.7162
2837.926423 0.7159 0.7146 0.7133 0.7120 0.7107
2841.171676 0.7095 0.7082 0.7069 0.7055 0.7040
2844.416928 0.7024 0.7009 0.6994 0.6978 0.6963
2847.662181 0.6947 0.6935 0.6924 0.6914 0.6904
2850.907434 0.6897 0.6892 0.6886 0.6881 0.6880
2854.152687 0.6880 0.6880 0.6880 0.6878 0.6875
2857.397940 0.6873 0.6870 0.6870 0.6870 0.6870
2860.643192 0.6870 0.6870 0.6870 0.6870 0.6871
2863.888445 0.6873 0.6876 0.6878 0.6880 0.6880
2867.133698 0.6880 0.6880 0.6880 0.6880 0.6880
2870.378951 0.6880 0.6881 0.6884 0.6887 0.6889
2873.624204 0.6890 0.6890 0.6890 0.6890 0.6890
2876.869456 0.6890 0.6890 0.6890 0.6890 0.6890
2880.114709 0.6890 0.6890 0.6890 0.6890 0.6890
2883.359962 0.6890 0.6890 0.6890 0.6890 0.6889
2886.605215 0.6884 0.6879 0.6873 0.6869 0.6867
2889.850467 0.6864 0.6861 0.6860 0.6860 0.6860
2893.095720 0.6860 0.6856 0.6848 0.6840 0.6833
2896.340973 0.6827 0.6821 0.6816 0.6811 0.6804
2899.586226 0.6796 0.6789 0.6781 0.6773 0.6766
2902.831479 0.6758 0.6750 0.6745 0.6740 0.6735
2906.076731 0.6729 0.6722 0.6714 0.6706 0.6698
2909.321984 0.6687 0.6677 0.6667 0.6654 0.6636
2912.567237 0.6618 0.6600 0.6574 0.6538 0.6502
2915.812490 0.6466 0.6431 0.6398 0.6364 0.6331
2919.057743 0.6310 0.6294 0.6279 0.6263 0.6252
2922.302995 0.6242 0.6231 0.6221 0.6193 0.6162
2925.548248 0.6131 0.6100 0.6070 0.6039 0.6008
2928.793501 0.5976 0.5935 0.5894 0.5853 0.5812
2932.038754 0.5773 0.5734 0.5695 0.5644 0.5572
2935.284006 0.5500 0.5429 0.5390 0.5390 0.5390
2938.529259 0.5390 0.5391 0.5394 0.5397 0.5399
2941.774512 0.5414 0.5434 0.5455 0.5476 0.5498
2945.019765 0.5521 0.5544 0.5567 0.5591 0.5614
2948.265018 0.5637 0.5660 0.5683 0.5706 0.5729
2951.510270 0.5752 0.5776 0.5799 0.5822 0.5840
2954.755523 0.5840 0.5840 0.5840 0.5840 0.5840
2958.000776 0.5840 0.5840 0.5763 0.5601 0.5439
2961.246029 0.5278 0.5161 0.5076 0.4991 0.4906
2964.491282 0.4827 0.4750 0.4673 0.4596 0.4576
2967.736534 0.4571 0.4566 0.4561 0.4565 0.4570
2970.981787 0.4575 0.4580 0.4603 0.4626 0.4650
2974.227040 0.4673 0.4699 0.4724 0.4750 0.4776
2977.472293 0.4801 0.4827 0.4853 0.4878 0.4901
2980.717545 0.4924 0.4947 0.4973 0.5001 0.5030
2983.962798 0.5058 0.5084 0.5107 0.5130 0.5153
2987.208051 0.5178 0.5204 0.5229 0.5255 0.5279
2990.453304 0.5302 0.5325 0.5348 0.5364 0.5379
2993.698557 0.5395 0.5410 0.5423 0.5436 0.5449
2996.943809 0.5460 0.5460 0.5460 0.5460 0.5452
3000.189062 0.5416 0.5380 0.5344 0.5275 0.5141
3003.434315 0.5007 0.4874 0.4733 0.4584 0.4435
3006.679568 0.4286 0.4161 0.4054 0.3948 0.3841
3009.924821 0.3808 0.3806 0.3803 0.3800 0.3802
3013.170073 0.3805 0.3807 0.3810 0.3860 0.3914
3016.415326 0.3968 0.4022 0.4073 0.4124 0.4176
3019.660579 0.4228 0.4284 0.4341 0.4397 0.4453
3022.905832 0.4504 0.4555 0.4607 0.4659 0.4713
3026.151084 0.4767 0.4821 0.4872 0.4921 0.4970
3029.396337 0.5019 0.5075 0.5136 0.5198 0.5260
3032.641590 0.5282 0.5284 0.5287 0.5290 0.5305
3035.886843 0.5323 0.5341 0.5359 0.5377 0.5395
3039.132096 0.5413 0.5432 0.5467 0.5503 0.5539
3042.377348 0.5575 0.5611 0.5647 0.5683 0.5715
3045.622601 0.5733 0.5751 0.5769 0.5790 0.5819
3048.867854 0.5847 0.5875 0.5903 0.5932 0.5960
3052.113107 0.5988 0.6019 0.6053 0.6086 0.6119
3055.358360 0.6144 0.6165 0.6185 0.6206 0.6226
3058.603612 0.6247 0.6268 0.6289 0.6302 0.6315
3061.848865 0.6328 0.6340 0.6348 0.6356 0.6364
3065.094118 0.6371 0.6376 0.6381 0.6386 0.6393
3068.339371 0.6403 0.6413 0.6424 0.6431 0.6434
3071.584624 0.6436 0.6439 0.6441 0.6444 0.6446
3074.829876 0.6449 0.6452 0.6454 0.6457 0.6459
3078.075129 0.6465 0.6473 0.6481 0.6488 0.6496
3081.320382 0.6504 0.6512 0.6519 0.6525 0.6530
3084.565635 0.6535 0.6540 0.6548 0.6556 0.6564
3087.810887 0.6572 0.6582 0.6592 0.6603 0.6612
3091.056140 0.6620 0.6628 0.6635 0.6643 0.6651
3094.301393 0.6658 0.6666 0.6675 0.6685 0.6696
3097.546646 0.6706 0.6715 0.6722 0.6730 0.6738
3100.791899 0.6745 0.6753 0.6761 0.6769 0.6778
3104.037151 0.6789 0.6799 0.6809 0.6815 0.6820
3107.282404 0.6825 0.6830 0.6838 0.6846 0.6854
3110.527657 0.6861 0.6866 0.6871 0.6876 0.6881
3113.772910 0.6887 0.6892 0.6897 0.6901 0.6904
3117.018163 0.6906 0.6909 0.6916 0.6929 0.6942
3120.263415 0.6955 0.6966 0.6977 0.6987 0.6997
3123.508668 0.7006 0.7013 0.7021 0.7029 0.7036
3126.753921 0.7044 0.7052 0.7059 0.7065 0.7070
3129.999174 0.7075 0.7080 0.7085 0.7090 0.7096
3133.244426 0.7100 0.7103 0.7106 0.7108 0.7112
3136.489679 0.7117 0.7122 0.7127 0.7131 0.7134
3139.734932 0.7136 0.7139 0.7141 0.7144 0.7146
3142.980185 0.7149 0.7152 0.7154 0.7157 0.7159
3146.225438 0.7162 0.7164 0.7167 0.7170 0.7170
3149.470690 0.7170 0.7170 0.7170 0.7172 0.7175
3152.715943 0.7178 0.7180 0.7180 0.7180 0.7180
3155.961196 0.7180 0.7180 0.7180 0.7180 0.7181
3159.206449 0.7183 0.7186 0.7188 0.7191 0.7194
3162.451702 0.7196 0.7199 0.7200 0.7200 0.7200
3165.696954 0.7200 0.7200 0.7200 0.7200 0.7200
3168.942207 0.7204 0.7209 0.7214 0.7219 0.7220
3172.187460 0.7220 0.7220 0.7220 0.7225 0.7230
3175.432713 0.7235 0.7240 0.7243 0.7245 0.7248
3178.677965 0.7250 0.7250 0.7250 0.7250 0.7251
3181.923218 0.7253 0.7256 0.7258 0.7261 0.7264
3185.168471 0.7266 0.7269 0.7270 0.7270 0.7270
3188.413724 0.7270 0.7270 0.7270 0.7270 0.7270
3191.658977 0.7272 0.7274 0.7277 0.7280 0.7282
3194.904229 0.7285 0.7287 0.7290 0.7290 0.7290
3198.149482 0.7290 0.7290 0.7293 0.7295 0.7298
3201.394735 0.7300 0.7303 0.7306 0.7308 0.7310
3204.639988 0.7310 0.7310 0.7310 0.7310 0.7310
3207.885241 0.7310 0.7310 0.7311 0.7314 0.7316
3211.130493 0.7319 0.7320 0.7320 0.7320 0.7320
3214.375746 0.7320 0.7320 0.7320 0.7320 0.7322
3217.620999 0.7325 0.7327 0.7330 0.7333 0.7335
3220.866252 0.7338 0.7340 0.7340 0.7340 0.7340
3224.111504 0.7340 0.7340 0.7340 0.7340 0.7340
3227.356757 0.7340 0.7340 0.7340 0.7340 0.7340
3230.602010 0.7340 0.7340 0.7340 0.7340 0.7340
3233.847263 0.7340 0.7340 0.7340 0.7340 0.7340
3237.092516 0.7340 0.7340 0.7340 0.7340 0.7340
3240.337768 0.7340 0.7340 0.7340 0.7340 0.7340
3243.583021 0.7340 0.7340 0.7340 0.7340 0.7340
3246.828274 0.7340 0.7340 0.7340 0.7340 0.7339
3250.073527 0.7337 0.7334 0.7332 0.7330 0.7330
3253.318780 0.7330 0.7330 0.7330 0.7330 0.7330
3256.564032 0.7330 0.7330 0.7330 0.7330 0.7330
3259.809285 0.7332 0.7335 0.7337 0.7340 0.7340
3263.054538 0.7340 0.7340 0.7340 0.7340 0.7340
3266.299791 0.7340 0.7340 0.7340 0.7340 0.7340
3269.545043 0.7340 0.7340 0.7340 0.7340 0.7341
3272.790296 0.7343 0.7346 0.7349 0.7351 0.7354
3276.035549 0.7356 0.7359 0.7360 0.7360 0.7360
3279.280802 0.7360 0.7360 0.7360 0.7360 0.7360
3282.526055 0.7360 0.7360 0.7360 0.7360 0.7360
3285.771307 0.7360 0.7360 0.7360 0.7363 0.7365
3289.016560 0.7368 0.7370 0.7373 0.7375 0.7378
3292.261813 0.7380 0.7380 0.7380 0.7380 0.7381
3295.507066 0.7383 0.7386 0.7389 0.7390 0.7390
3298.752319 0.7390 0.7390 0.7390 0.7390 0.7390
3301.997571 0.7390 0.7392 0.7394 0.7397 0.7399
3305.242824 0.7400 0.7400 0.7400 0.7400 0.7400
3308.488077 0.7400 0.7400 0.7400 0.7400 0.7400
3311.733330 0.7400 0.7400 0.7400 0.7400 0.7400
3314.978583 0.7400 0.7400 0.7400 0.7400 0.7400
3318.223835 0.7400 0.7400 0.7400 0.7400 0.7400
3321.469088 0.7400 0.7400 0.7400 0.7400 0.7400
3324.714341 0.7400 0.7400 0.7400 0.7400 0.7400
3327.959594 0.7400 0.7400 0.7400 0.7400 0.7398
3331.204846 0.7395 0.7393 0.7390 0.7390 0.7390
3334.450099 0.7390 0.7390 0.7390 0.7390 0.7390
3337.695352 0.7390 0.7390 0.7390 0.7390 0.7390
3340.940605 0.7390 0.7390 0.7390 0.7389 0.7386
3344.185858 0.7384 0.7381 0.7380 0.7380 0.7380
3347.431110 0.7380 0.7380 0.7380 0.7380 0.7380
3350.676363 0.7378 0.7375 0.7373 0.7370 0.7370
3353.921616 0.7370 0.7370 0.7370 0.7367 0.7365
3357.166869 0.7362 0.7360 0.7360 0.7360 0.7360
3360.412122 0.7360 0.7360 0.7360 0.7360 0.7360
3363.657374 0.7360 0.7360 0.7360 0.7360 0.7360
3366.902627 0.7360 0.7360 0.7360 0.7360 0.7360
3370.147880 0.7360 0.7360 0.7360 0.7360 0.7360
3373.393133 0.7358 0.7355 0.7353 0.7350 0.7348
3376.638385 0.7345 0.7343 0.7340 0.7340 0.7340
3379.883638 0.7340 0.7340 0.7337 0.7335 0.7332
3383.128891 0.7330 0.7330 0.7330 0.7330 0.7329
3386.374144 0.7327 0.7324 0.7321 0.7319 0.7316
3389.619397 0.7314 0.7311 0.7307 0.7302 0.7297
3392.864649 0.7292 0.7286 0.7281 0.7276 0.7271
3396.109902 0.7250 0.7224 0.7198 0.7173 0.7154
3399.355155 0.7136 0.7118 0.7100 0.7090 0.7079
3402.600408 0.7069 0.7059 0.7049 0.7038 0.7028
3405.845661 0.7015 0.6992 0.6969 0.6946 0.6922
3409.090913 0.6899 0.6876 0.6853 0.6830 0.6806
3412.336166 0.6783 0.6760 0.6736 0.6713 0.6690
3415.581419 0.6667 0.6642 0.6616 0.6591 0.6565
3418.826672 0.6541 0.6518 0.6495 0.6472 0.6449
3422.071924 0.6426 0.6403 0.6379 0.6349 0.6318
3425.317177 0.6287 0.6255 0.6219 0.6183 0.6148
3428.562430 0.6119 0.6117 0.6114 0.6112 0.6111
3431.807683 0.6113 0.6116 0.6119 0.6143 0.6194
3435.052936 0.6246 0.6297 0.6349 0.6401 0.6453
3438.298188 0.6505 0.6535 0.6555 0.6576 0.6596
3441.543441 0.6640 0.6689 0.6737 0.6786 0.6811
3444.788694 0.6834 0.6858 0.6881 0.6899 0.6917
3448.033947 0.6935 0.6950 0.6953 0.6955 0.6958
3451.279200 0.6961 0.6963 0.6966 0.6968 0.6970
3454.524452 0.6970 0.6970 0.6970 0.6971 0.6974
3457.769705 0.6976 0.6979 0.6983 0.6988 0.6993
3461.014958 0.6998 0.7004 0.7009 0.7014 0.7019
3464.260211 0.7022 0.7025 0.7027 0.7030 0.7035
3467.505463 0.7040 0.7045 0.7050 0.7053 0.7055
3470.750716 0.7058 0.7061 0.7066 0.7071 0.7076
3473.995969 0.7081 0.7086 0.7092 0.7097 0.7102
3477.241222 0.7107 0.7112 0.7117 0.7120 0.7120
3480.486475 0.7120 0.7120 0.7121 0.7124 0.7127
3483.731727 0.7129 0.7130 0.7130 0.7130 0.7130
3486.976980 0.7130 0.7130 0.7130 0.7130 0.7132
3490.222233 0.7135 0.7138 0.7140 0.7140 0.7140
3493.467486 0.7140 0.7140 0.7140 0.7140 0.7140
3496.712739 0.7140 0.7140 0.7140 0.7140 0.7139
3499.957991 0.7136 0.7134 0.7131 0.7130 0.7130
3503.203244 0.7130 0.7130 0.7130 0.7130 0.7130
3506.448497 0.7130 0.7130 0.7130 0.7130 0.7130
3509.693750 0.7128 0.7125 0.7123 0.7120 0.7120
3512.939003 0.7120 0.7120 0.7120 0.7120 0.7120
3516.184255 0.7120 0.7120 0.7117 0.7114 0.7112
3519.429508 0.7110 0.7110 0.7110 0.7110 0.7110
3522.674761 0.7110 0.7110 0.7110 0.7111 0.7114
3525.920014 0.7116 0.7119 0.7120 0.7120 0.7120
3529.165266 0.7120 0.7120 0.7120 0.7120 0.7120
3532.410519 0.7122 0.7125 0.7127 0.7130 0.7130
3535.655772 0.7130 0.7130 0.7130 0.7130 0.7130
3538.901025 0.7130 0.7130 0.7130 0.7130 0.7130
3542.146278 0.7131 0.7133 0.7136 0.7138 0.7140
3545.391530 0.7140 0.7140 0.7140 0.7141 0.7144
3548.636783 0.7146 0.7149 0.7150 0.7150 0.7150
3551.882036 0.7150 0.7152 0.7154 0.7157 0.7160
3555.127289 0.7162 0.7165 0.7167 0.7170 0.7172
3558.372542 0.7175 0.7178 0.7180 0.7180 0.7180
3561.617794 0.7180 0.7180 0.7180 0.7180 0.7180
3564.863047 0.7180 0.7180 0.7180 0.7180 0.7181
3568.108300 0.7184 0.7186 0.7189 0.7190 0.7190
3571.353553 0.7190 0.7190 0.7192 0.7194 0.7197
3574.598805 0.7199 0.7200 0.7200 0.7200 0.7200
3577.844058 0.7200 0.7200 0.7200 0.7200 0.7200
3581.089311 0.7200 0.7200 0.7200 0.7205 0.7211
3584.334564 0.7216 0.7220 0.7220 0.7220 0.7220
3587.579817 0.7221 0.7223 0.7226 0.7228 0.7231
3590.825069 0.7234 0.7236 0.7239 0.7241 0.7244
3594.070322 0.7246 0.7249 0.7253 0.7258 0.7264
3597.315575 0.7269 0.7270 0.7270 0.7270 0.7270
3600.560828 0.7270 0.7270 0.7270 0.7270 0.7270
3603.806081 0.7270 0.7270 0.7270 0.7275 0.7281
3607.051333 0.7286 0.7290 0.7290 0.7290 0.7290
3610.296586 0.7291 0.7293 0.7296 0.7298 0.7301
3613.541839 0.7304 0.7306 0.7309 0.7311 0.7314
3616.787092 0.7317 0.7319 0.7320 0.7320 0.7320
3620.032344 0.7320 0.7320 0.7320 0.7320 0.7320
3623.277597 0.7320 0.7320 0.7320 0.7320 0.7322
3626.522850 0.7325 0.7328 0.7330 0.7330 0.7330
3629.768103 0.7330 0.7330 0.7333 0.7336 0.7338
3633.013356 0.7340 0.7340 0.7340 0.7340 0.7340
3636.258608 0.7340 0.7340 0.7340 0.7340 0.7340
3639.503861 0.7340 0.7340 0.7340 0.7340 0.7340
3642.749114 0.7340 0.7340 0.7340 0.7340 0.7340
3645.994367 0.7340 0.7340 0.7340 0.7340 0.7340
3649.239620 0.7340 0.7340 0.7340 0.7340 0.7340
3652.484872 0.7340 0.7340 0.7340 0.7340 0.7340
3655.730125 0.7340 0.7340 0.7340 0.7340 0.7340
3658.975378 0.7340 0.7340 0.7340 0.7340 0.7340
3662.220631 0.7340 0.7340 0.7340 0.7340 0.7340
3665.465883 0.7340 0.7338 0.7335 0.7333 0.7330
3668.711136 0.7330 0.7330 0.7330 0.7330 0.7327
3671.956389 0.7325 0.7322 0.7320 0.7317 0.7315
3675.201642 0.7312 0.7309 0.7307 0.7304 0.7302
3678.446895 0.7297 0.7287 0.7276 0.7266 0.7252
3681.692147 0.7231 0.7210 0.7190 0.7179 0.7176
3684.937400 0.7174 0.7171 0.7167 0.7162 0.7157
3688.182653 0.7151 0.7144 0.7136 0.7129 0.7121
3691.427906 0.7115 0.7110 0.7105 0.7100 0.7092
3694.673159 0.7085 0.7077 0.7070 0.7070 0.7070
3697.918411 0.7070 0.7071 0.7076 0.7081 0.7086
3701.163664 0.7090 0.7090 0.7090 0.7090 0.7096
3704.408917 0.7112 0.7127 0.7143 0.7157 0.7170
3707.654170 0.7182 0.7195 0.7200 0.7200 0.7200
3710.899422 0.7200 0.7200 0.7200 0.7200 0.7200
3714.144675 0.7207 0.7214 0.7222 0.7230 0.7240
3717.389928 0.7251 0.7261 0.7271 0.7281 0.7292
3720.635181 0.7302 0.7311 0.7316 0.7321 0.7327
3723.880434 0.7331 0.7333 0.7336 0.7339 0.7342
3727.125686 0.7347 0.7353 0.7358 0.7360 0.7360
3730.370939 0.7360 0.7360 0.7363 0.7368 0.7374
3733.616192 0.7379 0.7380 0.7380 0.7380 0.7380
3736.861445 0.7380 0.7380 0.7380 0.7380 0.7380
3740.106698 0.7380 0.7380 0.7380 0.7383 0.7385
3743.351950 0.7388 0.7391 0.7393 0.7396 0.7398
3746.597203 0.7400 0.7400 0.7400 0.7400 0.7400
3749.842456 0.7400 0.7400 0.7400 0.7400 0.7400
3753.087709 0.7400 0.7400 0.7400 0.7400 0.7400
3756.332962 0.7400 0.7400 0.7400 0.7400 0.7400
3759.578214 0.7400 0.7400 0.7400 0.7400 0.7400
3762.823467 0.7400 0.7400 0.7400 0.7400 0.7400
3766.068720 0.7400 0.7399 0.7397 0.7394 0.7392
3769.313973 0.7390 0.7390 0.7390 0.7390 0.7389
3772.559225 0.7386 0.7384 0.7381 0.7380 0.7380
3775.804478 0.7380 0.7380 0.7380 0.7380 0.7380
3779.049731 0.7380 0.7378 0.7375 0.7373 0.7370
3782.294984 0.7370 0.7370 0.7370 0.7370 0.7370
3785.540237 0.7370 0.7370 0.7370 0.7370 0.7370
3788.785489 0.7370 0.7369 0.7367 0.7364 0.7362
3792.030742 0.7360 0.7360 0.7360 0.7360 0.7360
3795.275995 0.7360 0.7360 0.7360 0.7360 0.7360
3798.521248 0.7360 0.7360 0.7360 0.7360 0.7360
3801.766501 0.7360 0.7360 0.7360 0.7360 0.7360
3805.011753 0.7360 0.7360 0.7360 0.7360 0.7360
3808.257006 0.7360 0.7360 0.7360 0.7360 0.7360
3811.502259 0.7360 0.7360 0.7360 0.7360 0.7360
3814.747512 0.7360 0.7360 0.7360 0.7360 0.7360
3817.992764 0.7360 0.7360 0.7360 0.7360 0.7360
3821.238017 0.7360 0.7360 0.7360 0.7360 0.7360
3824.483270 0.7360 0.7360 0.7360 0.7360 0.7360
3827.728523 0.7360 0.7360 0.7360 0.7360 0.7360
3830.973776 0.7360 0.7360 0.7360 0.7360 0.7360
3834.219028 0.7360 0.7360 0.7360 0.7360 0.7360
3837.464281 0.7360 0.7360 0.7360 0.7360 0.7360
3840.709534 0.7360 0.7360 0.7360 0.7362 0.7364
3843.954787 0.7367 0.7369 0.7370 0.7370 0.7370
3847.200040 0.7370 0.7372 0.7375 0.7377 0.7380
3850.445292 0.7380 0.7380 0.7380 0.7380 0.7380
3853.690545 0.7380 0.7380 0.7380 0.7380 0.7380
3856.935798 0.7380 0.7380 0.7380 0.7380 0.7380
3860.181051 0.7381 0.7383 0.7386 0.7389 0.7389
3863.426303 0.7386 0.7384 0.7381 0.7380 0.7380
3866.671556 0.7380 0.7380 0.7380 0.7380 0.7380
3869.916809 0.7380 0.7380 0.7380 0.7380 0.7380
3873.162062 0.7380 0.7380 0.7380 0.7380 0.7380
3876.407315 0.7380 0.7380 0.7380 0.7377 0.7375
3879.652567 0.7372 0.7370 0.7370 0.7370 0.7370
3882.897820 0.7369 0.7367 0.7364 0.7361 0.7360
3886.143073 0.7360 0.7360 0.7360 0.7360 0.7360
3889.388326 0.7360 0.7360 0.7360 0.7360 0.7360
3892.633579 0.7360 0.7360 0.7360 0.7360 0.7360
3895.878831 0.7360 0.7360 0.7360 0.7360 0.7357
3899.124084 0.7355 0.7352 0.7350 0.7350 0.7350
3902.369337 0.7350 0.7349 0.7347 0.7344 0.7342
3905.614590 0.7340 0.7340 0.7340 0.7340 0.7340
3908.859842 0.7340 0.7340 0.7340 0.7340 0.7340
3912.105095 0.7340 0.7340 0.7340 0.7340 0.7340
3915.350348 0.7340 0.7338 0.7335 0.7333 0.7330
3918.595601 0.7330 0.7330 0.7330 0.7330 0.7330
3921.840854 0.7330 0.7330 0.7330 0.7330 0.7330
3925.086106 0.7330 0.7329 0.7327 0.7324 0.7322
3928.331359 0.7320 0.7320 0.7320 0.7320 0.7320
3931.576612 0.7320 0.7320 0.7320 0.7320 0.7320
3934.821865 0.7320 0.7320 0.7320 0.7320 0.7320
3938.067118 0.7320 0.7320 0.7320 0.7320 0.7320
3941.312370 0.7320 0.7320 0.7320 0.7320 0.7317
3944.557623 0.7315 0.7312 0.7310 0.7310 0.7310
3947.802876 0.7310 0.7310 0.7310 0.7310 0.7310
3951.048129 0.7310 0.7310 0.7310 0.7310 0.7309
3954.293382 0.7306 0.7304 0.7301 0.7298 0.7296
3957.538634 0.7293 0.7291 0.7290 0.7290 0.7290
3960.783887 0.7290 0.7290 0.7290 0.7290 0.7290
3964.029140 0.7288 0.7285 0.7283 0.7280 0.7280
3967.274393 0.7280 0.7280 0.7280 0.7277 0.7274
3970.519645 0.7272 0.7270 0.7270 0.7270 0.7270
3973.764898 0.7269 0.7266 0.7264 0.7261 0.7259
3977.010151 0.7256 0.7254 0.7251 0.7250 0.7250
3980.255404 0.7250 0.7250 0.7250 0.7250 0.7250
3983.500657 0.7250
##END=
