##TITLE=2-PROPANONE
##JCAMP-DX=4.24
##DATA TYPE=INFRARED SPECTRUM
##CLASS=COBLENTZ III
##ORIGIN=DOW CHEMICAL COMPANY
##OWNER=COBLENTZ SOCIETY
Collection (C) 2007 copyright by the U.S. Secretary of Commerce
on behalf of the United States of America. All rights reserved.
##DATE=1977/05
##NAMES=acetone
ACETONE
##CAS REGISTRY NO=67-64-1
##MOLFORM=C3H6O
##SOURCE REFERENCE=COBLENTZ NO. 10188
##$NIST SOURCE=COBLENTZ
##$NIST IMAGE=cob10188
##SPECTROMETER/DATA SYSTEM=BECKMAN IR-9 (GRATING)
##INSTRUMENT PARAMETERS=ORDER CHANGES AT 670, 1200, 2000 CM^-^1
##STATE=SOLUTION (10% IN CCl4 FOR 3800-1300, 10% IN CS2 FOR 1300-420 CM^-^1)
##PATH LENGTH=0.011, 0.011 CM
##SAMPLING PROCEDURE=TRANSMISSION
##RESOLUTION=4
##DATA PROCESSING=DIGITIZED BY NIST FROM HARD COPY (FROM TWO SEGMENTS)
##XUNITS=1/CM
##YUNITS=TRANSMITTANCE
##XFACTOR=1.000000
##YFACTOR=1
##DELTAX=1.039640
##FIRSTX=421.832
##LASTX=4000.27
##FIRSTY=0.94
##MAXX=4000.27
##MINX=421.832
##MAXY=1.058
##MINY=0.001
##NPOINTS=3443
##XYDATA=(X++(Y..Y))
421.832000 0.9400 0.9460 0.9510 0.9550 0.9600
427.030200 0.9640 0.9670 0.9740 0.9780 0.9810
432.228400 0.9830 0.9830 0.9810 0.9810 0.9810
437.426601 0.9800 0.9800 0.9800 0.9780 0.9780
442.624801 0.9780 0.9800 0.9800 0.9800 0.9810
447.823001 0.9810 0.9830 0.9840 0.9860 0.9870
453.021201 0.9900 0.9920 0.9930 0.9950 0.9960
458.219401 0.9980 0.9980 0.9980 0.9980 0.9980
463.417601 0.9980 0.9980 0.9960 0.9960 0.9950
468.615802 0.9950 0.9920 0.9900 0.9890 0.9870
473.814002 0.9860 0.9840 0.9830 0.9800 0.9770
479.012202 0.9740 0.9690 0.9640 0.9580 0.9510
484.210402 0.9410 0.9320 0.9220 0.9120 0.9030
489.408602 0.8851 0.8740 0.8730 0.8740 0.8849
494.606802 0.9000 0.9220 0.9290 0.9310 0.9310
499.805003 0.9290 0.9280 0.9260 0.9230 0.9200
505.003203 0.9170 0.9120 0.9080 0.9020 0.8970
510.201403 0.8890 0.8820 0.8730 0.8621 0.8481
515.399603 0.8340 0.8190 0.8020 0.7810 0.7441
520.597803 0.6862 0.6651 0.6073 0.5613 0.5302
525.796003 0.4980 0.4171 0.3481 0.2761 0.1713
530.994204 0.1391 0.1390 0.1430 0.1768 0.2197
536.192404 0.2750 0.3250 0.3909 0.5208 0.5928
541.390604 0.6488 0.6938 0.7298 0.7609 0.7879
546.588804 0.8110 0.8310 0.8530 0.8740 0.8959
551.787004 0.9080 0.9180 0.9280 0.9350 0.9430
556.985204 0.9490 0.9570 0.9610 0.9660 0.9700
562.183405 0.9750 0.9780 0.9830 0.9860 0.9890
567.381605 0.9920 0.9950 1.0000 1.0010 1.0060
572.579805 1.0070 1.0070 1.0090 1.0120 1.0130
577.778005 1.0160 1.0190 1.0190 1.0210 1.0210
582.976205 1.0220 1.0240 1.0240 1.0250 1.0270
588.174405 1.0290 1.0300 1.0300 1.0300 1.0300
593.372606 1.0300 1.0320 1.0330 1.0350 1.0360
598.570806 1.0390 1.0420 1.0470 1.0470 1.0480
603.769006 1.0500 1.0500 1.0510 1.0510 1.0530
608.967206 1.0530 1.0530 1.0550 1.0550 1.0550
614.165406 1.0550 1.0560 1.0560 1.0580 1.0580
619.363606 1.0560 1.0560 1.0560 1.0560 1.0560
624.561807 1.0560 1.0560 1.0560 1.0530 1.0510
629.760007 1.0510 1.0510 1.0500 1.0500 1.0480
634.958207 1.0470 1.0450 1.0440 1.0420 1.0410
640.156407 1.0380 1.0360 1.0350 1.0330 1.0330
645.354607 1.0320 1.0300 1.0270 1.0121 1.0031
650.552807 0.9980 0.9920 0.9580 0.9550 0.9540
655.751008 0.9550 0.9570 0.9660 0.9740 0.9800
660.949208 0.9930 0.9960 1.0010 1.0060 1.0070
666.147408 1.0100 1.0120 1.0130 1.0150 1.0160
671.345608 1.0160 1.0180 1.0190 1.0210 1.0220
676.543808 1.0220 1.0220 1.0240 1.0240 1.0250
681.742008 1.0250 1.0270 1.0270 1.0290 1.0300
686.940209 1.0300 1.0320 1.0320 1.0320 1.0320
692.138409 1.0320 1.0320 1.0320 1.0320 1.0320
697.336609 1.0320 1.0320 1.0320 1.0320 1.0320
702.534809 1.0320 1.0320 1.0320 1.0330 1.0330
707.733009 1.0350 1.0350 1.0330 1.0330 1.0330
712.931210 1.0330 1.0330 1.0330 1.0330 1.0320
718.129410 1.0320 1.0330 1.0330 1.0330 1.0320
723.327610 1.0320 1.0320 1.0320 1.0320 1.0320
728.525810 1.0320 1.0320 1.0320 1.0320 1.0320
733.724010 1.0320 1.0320 1.0320 1.0320 1.0300
738.922210 1.0300 1.0300 1.0300 1.0300 1.0300
744.120411 1.0290 1.0270 1.0270 1.0250 1.0240
749.318611 1.0240 1.0220 1.0220 1.0220 1.0210
754.516811 1.0190 1.0180 1.0180 1.0160 1.0150
759.715011 1.0130 1.0130 1.0120 1.0090 1.0070
764.913211 1.0070 1.0010 1.0000 1.0000 0.9980
770.111411 0.9930 0.9870 0.9840 0.9780 0.9740
775.309612 0.9660 0.9570 0.9520 0.9380 0.9280
780.507812 0.9180 0.9080 0.8990 0.8910 0.8890
785.706012 0.8910 0.8990 0.9060 0.9200 0.9310
790.904212 0.9490 0.9550 0.9630 0.9720 0.9780
796.102412 0.9840 0.9840 0.9900 0.9930 0.9960
801.300612 0.9980 1.0000 1.0000 1.0010 1.0010
806.498813 1.0030 1.0040 1.0040 1.0040 1.0040
811.697013 1.0040 1.0060 1.0070 1.0070 1.0070
816.895213 1.0070 1.0070 1.0090 1.0090 1.0090
822.093413 1.0090 1.0090 1.0090 1.0090 1.0100
827.291613 1.0100 1.0120 1.0130 1.0130 1.0150
832.489813 1.0160 1.0160 1.0180 1.0190 1.0190
837.688014 1.0210 1.0240 1.0250 1.0270 1.0270
842.886214 1.0250 1.0250 1.0240 1.0240 1.0220
848.084414 1.0190 1.0150 1.0120 1.0090 1.0070
853.282614 1.0010 1.0000 0.9980 0.9960 0.9930
858.480814 0.9920 0.9840 0.9780 0.9770 0.9750
863.679014 0.9740 0.9700 0.9670 0.9660 0.9660
868.877215 0.9640 0.9630 0.9600 0.9580 0.9570
874.075415 0.9540 0.9520 0.9490 0.9460 0.9430
879.273615 0.9380 0.9320 0.9260 0.9200 0.9110
884.471815 0.9020 0.8920 0.8820 0.8710 0.8620
889.670015 0.8370 0.8190 0.8050 0.7900 0.7750
894.868215 0.7560 0.7381 0.7171 0.7060 0.7030
900.066416 0.7030 0.7060 0.7140 0.7210 0.7320
905.264616 0.7430 0.7530 0.7610 0.7670 0.7849
910.462816 0.7960 0.8070 0.8180 0.8270 0.8340
915.661016 0.8440 0.8510 0.8570 0.8630 0.8710
920.859216 0.8770 0.8850 0.8880 0.8960 0.9000
926.057416 0.9060 0.9110 0.9120 0.9200 0.9230
931.255617 0.9290 0.9310 0.9340 0.9370 0.9410
936.453817 0.9430 0.9440 0.9460 0.9480 0.9480
941.652017 0.9510 0.9540 0.9550 0.9570 0.9580
946.850217 0.9600 0.9610 0.9630 0.9690 0.9770
952.048417 0.9780 0.9800 0.9810 0.9840 0.9860
957.246617 0.9860 0.9870 0.9870 0.9860 0.9840
962.444818 0.9830 0.9800 0.9770 0.9750 0.9720
967.643018 0.9700 0.9700 0.9690 0.9670 0.9660
972.841218 0.9660 0.9640 0.9640 0.9640 0.9640
978.039418 0.9660 0.9670 0.9690 0.9720 0.9740
983.237618 0.9740 0.9750 0.9770 0.9770 0.9770
988.435819 0.9770 0.9770 0.9780 0.9780 0.9800
993.634019 0.9830 0.9860 0.9860 0.9870 0.9900
998.832219 0.9920 0.9950 0.9960 0.9960 0.9980
1004.030419 0.9980 0.9980 0.9980 0.9980 0.9980
1009.228619 0.9980 0.9980 0.9980 0.9980 0.9960
1014.426819 0.9960 0.9960 0.9950 0.9950 0.9930
1019.625020 0.9930 0.9930 0.9930 0.9930 0.9920
1024.823220 0.9920 0.9920 0.9900 0.9890 0.9890
1030.021420 0.9870 0.9870 0.9860 0.9860 0.9840
1035.219620 0.9830 0.9810 0.9800 0.9780 0.9770
1040.417820 0.9770 0.9750 0.9740 0.9720 0.9700
1045.616020 0.9690 0.9670 0.9660 0.9640 0.9630
1050.814221 0.9580 0.9550 0.9520 0.9490 0.9480
1056.012421 0.9440 0.9430 0.9410 0.9350 0.9320
1061.210621 0.9310 0.9290 0.9280 0.9250 0.9230
1066.408821 0.9200 0.9180 0.9150 0.9110 0.9060
1071.607021 0.9000 0.8920 0.8860 0.8740 0.8630
1076.805221 0.8530 0.8390 0.8220 0.8010 0.7690
1082.003422 0.7470 0.7171 0.6751 0.6331 0.5732
1087.201622 0.5319 0.4899 0.4490 0.4320 0.4320
1092.399822 0.4400 0.5089 0.5449 0.5839 0.6169
1097.598022 0.6491 0.6830 0.7150 0.7520 0.7840
1102.796222 0.7920 0.7950 0.8100 0.8250 0.8360
1107.994422 0.8450 0.8530 0.8620 0.8700 0.8770
1113.192623 0.8820 0.8860 0.8890 0.8960 0.8970
1118.390823 0.9000 0.9030 0.9080 0.9110 0.9120
1123.589023 0.9170 0.9220 0.9260 0.9290 0.9310
1128.787223 0.9320 0.9340 0.9350 0.9370 0.9370
1133.985423 0.9370 0.9370 0.9370 0.9350 0.9340
1139.183623 0.9340 0.9320 0.9320 0.9320 0.9340
1144.381824 0.9340 0.9340 0.9340 0.9320 0.9320
1149.580024 0.9310 0.9290 0.9260 0.9230 0.9230
1154.778224 0.9220 0.9200 0.9180 0.9180 0.9170
1159.976424 0.9120 0.9090 0.9060 0.9050 0.9020
1165.174624 0.8990 0.8960 0.8890 0.8880 0.8860
1170.372824 0.8830 0.8760 0.8730 0.8680 0.8630
1175.571025 0.8570 0.8530 0.8450 0.8400 0.8330
1180.769225 0.8220 0.8110 0.8070 0.7960 0.7810
1185.967425 0.7700 0.7520 0.7330 0.7170 0.6941
1191.165625 0.6739 0.6460 0.6340 0.6200 0.6080
1196.363825 0.6000 0.5940 0.5810 0.5621 0.5331
1201.562025 0.5149 0.4959 0.4630 0.4370 0.3970
1206.760226 0.3530 0.3070 0.2501 0.2121 0.1253
1211.958426 0.0759 0.0500 0.0240 0.0030 0.0010
1217.156626 0.0010 0.0010 0.0010 0.0010 0.0010
1222.354826 0.0030 0.0030 0.0040 0.0150 0.0440
1227.553026 0.0730 0.1140 0.1649 0.2169 0.2639
1232.751226 0.3371 0.3771 0.4171 0.5000 0.5320
1237.949427 0.5610 0.5840 0.6139 0.6369 0.6619
1243.147627 0.6721 0.6950 0.7070 0.7230 0.7330
1248.345827 0.7440 0.7550 0.7660 0.7760 0.7870
1253.544027 0.7920 0.7990 0.8070 0.8100 0.8140
1258.742227 0.8190 0.8220 0.8300 0.8330 0.8340
1263.940428 0.8370 0.8400 0.8400 0.8440 0.8470
1269.138628 0.8530 0.8560 0.8590 0.8600 0.8620
1274.336828 0.8630 0.8650 0.8650 0.8650 0.8650
1279.535028 0.8630 0.8630 0.8620 0.8620 0.8590
1284.733228 0.8570 0.8560 0.8530 0.8510 0.8510
1289.931428 0.8480 0.8440 0.8400 0.8390 0.8340
1295.129629 0.8310 0.8300 0.8280 0.8270 0.8240
1300.327829 0.8180 0.8080 0.8070 0.8010 0.7950
1305.526029 0.7880 0.7820 0.7760 0.7700 0.7620
1310.724229 0.7550 0.7440 0.7380 0.7270 0.7200
1315.922429 0.7110 0.7000 0.6910 0.6830 0.6720
1321.120629 0.6630 0.6490 0.6390 0.6250 0.6051
1326.318830 0.5910 0.5840 0.5770 0.5740 0.5680
1331.517030 0.5530 0.5410 0.5270 0.5100 0.5030
1336.715230 0.4930 0.4779 0.4550 0.4430 0.4140
1341.913430 0.3860 0.3600 0.3360 0.3011 0.2721
1347.111630 0.2369 0.2089 0.1680 0.1290 0.0930
1352.309830 0.0530 0.0420 0.0290 0.0150 0.0070
1357.508031 0.0040 0.0030 0.0010 0.0010 0.0010
1362.706231 0.0030 0.0030 0.0040 0.0040 0.0060
1367.904431 0.0070 0.0090 0.0180 0.0290 0.0420
1373.102631 0.0580 0.0760 0.0960 0.1170 0.1399
1378.300831 0.1651 0.1891 0.2140 0.2320 0.2550
1383.499031 0.2730 0.2900 0.3070 0.3190 0.3310
1388.697232 0.3400 0.3480 0.3630 0.3740 0.3790
1393.895432 0.3820 0.3850 0.3850 0.3850 0.3820
1399.093632 0.3790 0.3760 0.3680 0.3570 0.3530
1404.291832 0.3450 0.3370 0.3250 0.3130 0.2960
1409.490032 0.2819 0.2640 0.2470 0.2260 0.2150
1414.688232 0.2010 0.1830 0.1690 0.1590 0.1540
1419.886433 0.1520 0.1540 0.1590 0.1620 0.1650
1425.084633 0.1740 0.1800 0.1810 0.1850 0.1850
1430.282833 0.1830 0.1750 0.1710 0.1620 0.1600
1435.481033 0.1600 0.1620 0.1630 0.1630 0.1660
1440.679233 0.1740 0.1780 0.1910 0.1970 0.2140
1445.877433 0.2240 0.2380 0.2520 0.2690 0.2850
1451.075634 0.3011 0.3180 0.3330 0.3450 0.3570
1456.273834 0.3710 0.3880 0.4020 0.4150 0.4280
1461.472034 0.4430 0.4580 0.4660 0.4780 0.5070
1466.670234 0.5190 0.5290 0.5380 0.5470 0.5530
1471.868434 0.5610 0.5680 0.5760 0.5810 0.5850
1477.066634 0.5880 0.5930 0.5970 0.6020 0.6070
1482.264835 0.6110 0.6160 0.6200 0.6250 0.6290
1487.463035 0.6340 0.6400 0.6430 0.6510 0.6550
1492.661235 0.6620 0.6630 0.6660 0.6660 0.6710
1497.859435 0.6740 0.6770 0.6800 0.6830 0.6860
1503.057635 0.6890 0.6890 0.6910 0.6920 0.6950
1508.255835 0.6970 0.7000 0.7010 0.7030 0.7040
1513.454036 0.7070 0.7070 0.7090 0.7110 0.7120
1518.652236 0.7170 0.7180 0.7180 0.7200 0.7200
1523.850436 0.7210 0.7210 0.7210 0.7230 0.7230
1529.048636 0.7240 0.7240 0.7260 0.7270 0.7290
1534.246836 0.7300 0.7320 0.7350 0.7400 0.7430
1539.445037 0.7440 0.7520 0.7560 0.7580 0.7610
1544.643237 0.7620 0.7640 0.7640 0.7640 0.7640
1549.841437 0.7640 0.7640 0.7640 0.7620 0.7610
1555.039637 0.7590 0.7560 0.7530 0.7500 0.7460
1560.237837 0.7410 0.7400 0.7380 0.7370 0.7350
1565.436037 0.7350 0.7350 0.7350 0.7350 0.7350
1570.634238 0.7350 0.7350 0.7350 0.7350 0.7350
1575.832438 0.7370 0.7370 0.7380 0.7400 0.7410
1581.030638 0.7430 0.7470 0.7500 0.7520 0.7550
1586.228838 0.7580 0.7610 0.7620 0.7620 0.7640
1591.427038 0.7660 0.7670 0.7690 0.7700 0.7730
1596.625238 0.7730 0.7760 0.7780 0.7790 0.7810
1601.823439 0.7820 0.7840 0.7850 0.7850 0.7850
1607.021639 0.7850 0.7840 0.7840 0.7820 0.7820
1612.219839 0.7820 0.7820 0.7820 0.7810 0.7810
1617.418039 0.7810 0.7810 0.7810 0.7810 0.7810
1622.616239 0.7810 0.7820 0.7820 0.7820 0.7840
1627.814439 0.7840 0.7840 0.7840 0.7820 0.7810
1633.012640 0.7810 0.7780 0.7780 0.7760 0.7750
1638.210840 0.7750 0.7730 0.7720 0.7700 0.7670
1643.409040 0.7660 0.7620 0.7620 0.7580 0.7550
1648.607240 0.7530 0.7500 0.7470 0.7440 0.7410
1653.805440 0.7400 0.7320 0.7290 0.7240 0.7230
1659.003640 0.7210 0.7180 0.7120 0.7070 0.7010
1664.201841 0.6970 0.6890 0.6850 0.6750 0.6660
1669.400041 0.6619 0.6479 0.6290 0.6130 0.6020
1674.598241 0.5820 0.5530 0.5320 0.5130 0.5040
1679.796441 0.4949 0.4770 0.4750 0.4770 0.4780
1684.994641 0.4780 0.4750 0.4720 0.4660 0.4610
1690.192841 0.4549 0.4439 0.4290 0.4170 0.4060
1695.391042 0.3920 0.3760 0.3500 0.3250 0.2900
1700.589242 0.2588 0.2179 0.1769 0.1260 0.1140
1705.787442 0.0930 0.0620 0.0380 0.0190 0.0100
1710.985642 0.0040 0.0030 0.0010 0.0010 0.0010
1716.183842 0.0010 0.0010 0.0010 0.0030 0.0030
1721.382042 0.0030 0.0030 0.0030 0.0030 0.0040
1726.580243 0.0040 0.0040 0.0060 0.0070 0.0120
1731.778443 0.0210 0.0320 0.0390 0.0510 0.0620
1736.976643 0.0740 0.0850 0.0960 0.1050 0.1230
1742.174843 0.1290 0.1290 0.1260 0.1250 0.1160
1747.373043 0.1130 0.1070 0.1030 0.1020 0.1030
1752.571243 0.1231 0.1371 0.1591 0.1800 0.2030
1757.769444 0.2270 0.2580 0.2810 0.3210 0.3420
1762.967644 0.3741 0.3911 0.4121 0.4340 0.4440
1768.165844 0.4610 0.4700 0.5000 0.5070 0.5190
1773.364044 0.5290 0.5330 0.5420 0.5500 0.5530
1778.562244 0.5550 0.5610 0.5640 0.5670 0.5700
1783.760444 0.5710 0.5730 0.5760 0.5790 0.5820
1788.958645 0.5850 0.5880 0.5910 0.5990 0.6030
1794.156845 0.6080 0.6130 0.6200 0.6260 0.6330
1799.355045 0.6390 0.6480 0.6550 0.6650 0.6720
1804.553245 0.6780 0.6850 0.6890 0.6980 0.7010
1809.751445 0.7070 0.7170 0.7240 0.7300 0.7330
1814.949646 0.7410 0.7430 0.7460 0.7520 0.7550
1820.147846 0.7620 0.7640 0.7720 0.7750 0.7760
1825.346046 0.7780 0.7840 0.7850 0.7880 0.7920
1830.544246 0.7950 0.7960 0.7990 0.7990 0.8020
1835.742446 0.8070 0.8070 0.8080 0.8080 0.8100
1840.940646 0.8110 0.8140 0.8180 0.8180 0.8180
1846.138847 0.8190 0.8210 0.8220 0.8240 0.8280
1851.337047 0.8300 0.8310 0.8310 0.8330 0.8340
1856.535247 0.8360 0.8370 0.8390 0.8400 0.8400
1861.733447 0.8440 0.8500 0.8510 0.8540 0.8560
1866.931647 0.8570 0.8570 0.8590 0.8590 0.8590
1872.129847 0.8590 0.8590 0.8570 0.8570 0.8560
1877.328048 0.8540 0.8530 0.8530 0.8510 0.8510
1882.526248 0.8500 0.8500 0.8500 0.8500 0.8510
1887.724448 0.8510 0.8530 0.8530 0.8530 0.8540
1892.922648 0.8540 0.8540 0.8560 0.8570 0.8590
1898.120848 0.8620 0.8620 0.8620 0.8630 0.8630
1903.319048 0.8630 0.8630 0.8630 0.8630 0.8630
1908.517249 0.8620 0.8620 0.8600 0.8600 0.8600
1913.715449 0.8600 0.8620 0.8620 0.8620 0.8630
1918.913649 0.8650 0.8650 0.8650 0.8650 0.8650
1924.111849 0.8650 0.8650 0.8650 0.8650 0.8650
1929.310049 0.8650 0.8650 0.8650 0.8650 0.8650
1934.508249 0.8650 0.8650 0.8650 0.8650 0.8650
1939.706450 0.8650 0.8650 0.8650 0.8650 0.8650
1944.904650 0.8660 0.8680 0.8700 0.8700 0.8710
1950.102850 0.8730 0.8730 0.8740 0.8760 0.8760
1955.301050 0.8770 0.8790 0.8790 0.8800 0.8800
1960.499250 0.8820 0.8820 0.8820 0.8820 0.8820
1965.697450 0.8800 0.8790 0.8790 0.8790 0.8790
1970.895651 0.8790 0.8790 0.8790 0.8790 0.8790
1976.093851 0.8790 0.8790 0.8770 0.8760 0.8740
1981.292051 0.8710 0.8680 0.8650 0.8630 0.8620
1986.490251 0.8600 0.8590 0.8590 0.8590 0.8590
1991.688451 0.8590 0.8590 0.8590 0.8590 0.8600
1996.886651 0.8600 0.8620 0.8630 0.8630 0.8630
2002.084852 0.8630 0.8630 0.8630 0.8640 0.8650
2007.283052 0.8655 0.8660 0.8695 0.8730 0.8735
2012.481252 0.8740 0.8765 0.8790 0.8795 0.8800
2017.679452 0.8810 0.8820 0.8825 0.8830 0.8840
2022.877652 0.8850 0.8850 0.8850 0.8855 0.8860
2028.075852 0.8860 0.8860 0.8860 0.8860 0.8860
2033.274053 0.8860 0.8860 0.8860 0.8855 0.8850
2038.472253 0.8850 0.8850 0.8850 0.8850 0.8850
2043.670453 0.8850 0.8850 0.8850 0.8850 0.8850
2048.868653 0.8850 0.8850 0.8840 0.8830 0.8830
2054.066853 0.8830 0.8830 0.8830 0.8830 0.8830
2059.265054 0.8830 0.8830 0.8830 0.8830 0.8830
2064.463254 0.8830 0.8825 0.8820 0.8820 0.8820
2069.661454 0.8810 0.8800 0.8800 0.8800 0.8800
2074.859654 0.8800 0.8800 0.8800 0.8800 0.8800
2080.057854 0.8785 0.8770 0.8770 0.8770 0.8770
2085.256054 0.8770 0.8770 0.8770 0.8765 0.8760
2090.454255 0.8750 0.8740 0.8725 0.8710 0.8695
2095.652455 0.8680 0.8670 0.8660 0.8655 0.8650
2100.850655 0.8635 0.8621 0.8591 0.8560 0.8545
2106.048855 0.8530 0.8505 0.8481 0.8465 0.8450
2111.247055 0.8435 0.8420 0.8410 0.8400 0.8395
2116.445255 0.8390 0.8390 0.8390 0.8390 0.8390
2121.643456 0.8380 0.8370 0.8370 0.8370 0.8370
2126.841656 0.8370 0.8365 0.8360 0.8360 0.8360
2132.039856 0.8345 0.8330 0.8301 0.8271 0.8246
2137.238056 0.8221 0.8162 0.8102 0.8090 0.8080
2142.436256 0.8090 0.8100 0.8100 0.8100 0.8115
2147.634456 0.8130 0.8159 0.8189 0.8205 0.8220
2152.832657 0.8259 0.8299 0.8319 0.8339 0.8388
2158.030857 0.8438 0.8454 0.8469 0.8499 0.8529
2163.229057 0.8535 0.8540 0.8540 0.8540 0.8555
2168.427257 0.8570 0.8609 0.8649 0.8674 0.8699
2173.625457 0.8719 0.8739 0.8750 0.8760 0.8760
2178.823657 0.8760 0.8760 0.8760 0.8760 0.8760
2184.021858 0.8760 0.8760 0.8760 0.8760 0.8760
2189.220058 0.8760 0.8760 0.8760 0.8760 0.8760
2194.418258 0.8760 0.8760 0.8765 0.8770 0.8770
2199.616458 0.8770 0.8770 0.8770 0.8770 0.8770
2204.814658 0.8770 0.8770 0.8770 0.8770 0.8780
2210.012858 0.8790 0.8790 0.8790 0.8780 0.8770
2215.211059 0.8756 0.8741 0.8726 0.8711 0.8696
2220.409259 0.8681 0.8671 0.8661 0.8669 0.8679
2225.607459 0.8689 0.8699 0.8700 0.8700 0.8705
2230.805659 0.8710 0.8710 0.8710 0.8710 0.8710
2236.003859 0.8705 0.8700 0.8700 0.8700 0.8691
2241.202059 0.8681 0.8671 0.8661 0.8641 0.8621
2246.400260 0.8578 0.8533 0.8516 0.8501 0.8500
2251.598460 0.8500 0.8490 0.8481 0.8480 0.8480
2256.796660 0.8480 0.8480 0.8480 0.8480 0.8489
2261.994860 0.8499 0.8505 0.8510 0.8510 0.8510
2267.193060 0.8519 0.8529 0.8544 0.8559 0.8565
2272.391260 0.8570 0.8570 0.8570 0.8584 0.8599
2277.589461 0.8614 0.8629 0.8644 0.8659 0.8697
2282.787661 0.8737 0.8754 0.8769 0.8779 0.8789
2287.985861 0.8804 0.8819 0.8820 0.8820 0.8825
2293.184061 0.8830 0.8830 0.8830 0.8830 0.8830
2298.382261 0.8825 0.8820 0.8820 0.8820 0.8811
2303.580461 0.8801 0.8800 0.8800 0.8795 0.8790
2308.778662 0.8776 0.8761 0.8746 0.8731 0.8716
2313.976862 0.8701 0.8691 0.8681 0.8680 0.8680
2319.175062 0.8666 0.8651 0.8641 0.8631 0.8630
2324.373262 0.8630 0.8639 0.8649 0.8650 0.8650
2329.571462 0.8650 0.8650 0.8641 0.8631 0.8630
2334.769663 0.8630 0.8630 0.8630 0.8630 0.8630
2339.967863 0.8630 0.8630 0.8639 0.8649 0.8650
2345.166063 0.8650 0.8650 0.8650 0.8650 0.8650
2350.364263 0.8650 0.8650 0.8650 0.8650 0.8650
2355.562463 0.8650 0.8650 0.8650 0.8650 0.8650
2360.760663 0.8655 0.8660 0.8683 0.8708 0.8719
2365.958864 0.8729 0.8735 0.8740 0.8749 0.8759
2371.157064 0.8765 0.8770 0.8779 0.8789 0.8809
2376.355264 0.8829 0.8830 0.8830 0.8839 0.8849
2381.553464 0.8850 0.8850 0.8850 0.8850 0.8855
2386.751664 0.8860 0.8860 0.8860 0.8860 0.8860
2391.949864 0.8860 0.8860 0.8860 0.8860 0.8860
2397.148065 0.8860 0.8855 0.8850 0.8850 0.8850
2402.346265 0.8841 0.8831 0.8830 0.8830 0.8825
2407.544465 0.8820 0.8811 0.8801 0.8795 0.8790
2412.742665 0.8790 0.8790 0.8781 0.8771 0.8770
2417.940865 0.8770 0.8756 0.8741 0.8740 0.8740
2423.139065 0.8726 0.8711 0.8696 0.8681 0.8666
2428.337266 0.8651 0.8623 0.8593 0.8567 0.8543
2433.535466 0.8536 0.8531 0.8530 0.8530 0.8530
2438.733666 0.8530 0.8535 0.8540 0.8540 0.8540
2443.931866 0.8549 0.8559 0.8565 0.8570 0.8593
2449.130066 0.8618 0.8647 0.8677 0.8707 0.8737
2454.328266 0.8749 0.8759 0.8774 0.8789 0.8795
2459.526467 0.8800 0.8809 0.8819 0.8820 0.8820
2464.724667 0.8820 0.8820 0.8820 0.8820 0.8820
2469.922867 0.8820 0.8820 0.8820 0.8820 0.8820
2475.121067 0.8820 0.8820 0.8820 0.8820 0.8811
2480.319267 0.8801 0.8800 0.8800 0.8795 0.8791
2485.517467 0.8790 0.8790 0.8790 0.8790 0.8790
2490.715668 0.8790 0.8781 0.8771 0.8770 0.8770
2495.913868 0.8770 0.8770 0.8779 0.8789 0.8790
2501.112068 0.8790 0.8795 0.8799 0.8800 0.8800
2506.310268 0.8809 0.8819 0.8820 0.8820 0.8824
2511.508468 0.8829 0.8830 0.8830 0.8830 0.8830
2516.706668 0.8830 0.8830 0.8830 0.8830 0.8830
2521.904869 0.8830 0.8839 0.8849 0.8850 0.8850
2527.103069 0.8850 0.8850 0.8850 0.8850 0.8850
2532.301269 0.8850 0.8854 0.8859 0.8860 0.8860
2537.499469 0.8860 0.8860 0.8860 0.8860 0.8856
2542.697669 0.8851 0.8850 0.8850 0.8850 0.8850
2547.895869 0.8841 0.8831 0.8830 0.8830 0.8830
2553.094070 0.8830 0.8826 0.8821 0.8811 0.8801
2558.292270 0.8800 0.8800 0.8787 0.8772 0.8757
2563.490470 0.8742 0.8736 0.8731 0.8699 0.8664
2568.688670 0.8576 0.8481 0.8422 0.8367 0.8347
2573.886870 0.8332 0.8330 0.8330 0.8343 0.8358
2579.085070 0.8386 0.8416 0.8442 0.8467 0.8497
2584.283271 0.8527 0.8543 0.8558 0.8573 0.8588
2589.481471 0.8608 0.8628 0.8639 0.8649 0.8672
2594.679671 0.8697 0.8713 0.8728 0.8743 0.8758
2599.877871 0.8773 0.8788 0.8794 0.8799 0.8809
2605.076071 0.8819 0.8820 0.8820 0.8811 0.8801
2610.274272 0.8800 0.8800 0.8796 0.8791 0.8790
2615.472472 0.8790 0.8790 0.8790 0.8790 0.8790
2620.670672 0.8790 0.8790 0.8790 0.8790 0.8781
2625.868872 0.8771 0.8770 0.8770 0.8770 0.8770
2631.067072 0.8770 0.8770 0.8770 0.8770 0.8770
2636.265272 0.8770 0.8770 0.8770 0.8770 0.8770
2641.463473 0.8770 0.8770 0.8779 0.8789 0.8790
2646.661673 0.8790 0.8790 0.8790 0.8790 0.8790
2651.859873 0.8790 0.8790 0.8790 0.8790 0.8790
2657.058073 0.8790 0.8803 0.8818 0.8824 0.8829
2662.256273 0.8830 0.8830 0.8839 0.8849 0.8854
2667.454473 0.8859 0.8860 0.8860 0.8860 0.8860
2672.652674 0.8860 0.8860 0.8860 0.8860 0.8856
2677.850874 0.8851 0.8841 0.8831 0.8826 0.8821
2683.049074 0.8807 0.8792 0.8781 0.8771 0.8770
2688.247274 0.8770 0.8770 0.8770 0.8770 0.8770
2693.445474 0.8770 0.8770 0.8770 0.8770 0.8779
2698.643674 0.8789 0.8794 0.8799 0.8800 0.8800
2703.841875 0.8800 0.8800 0.8800 0.8800 0.8800
2709.040075 0.8800 0.8800 0.8800 0.8800 0.8800
2714.238275 0.8796 0.8791 0.8790 0.8790 0.8790
2719.436475 0.8790 0.8790 0.8790 0.8794 0.8799
2724.634675 0.8800 0.8800 0.8800 0.8800 0.8800
2729.832875 0.8800 0.8809 0.8819 0.8820 0.8820
2735.031076 0.8812 0.8802 0.8800 0.8800 0.8796
2740.229276 0.8791 0.8782 0.8772 0.8770 0.8770
2745.427476 0.8766 0.8761 0.8760 0.8760 0.8751
2750.625676 0.8741 0.8740 0.8740 0.8736 0.8731
2755.823876 0.8722 0.8712 0.8710 0.8710 0.8706
2761.022076 0.8701 0.8692 0.8682 0.8668 0.8653
2766.220277 0.8642 0.8632 0.8613 0.8593 0.8577
2771.418477 0.8562 0.8547 0.8532 0.8496 0.8456
2776.616677 0.8412 0.8367 0.8335 0.8305 0.8279
2781.814877 0.8254 0.8246 0.8241 0.8232 0.8222
2787.013077 0.8228 0.8238 0.8265 0.8295 0.8329
2792.211277 0.8364 0.8378 0.8388 0.8415 0.8445
2797.409478 0.8463 0.8478 0.8492 0.8507 0.8518
2802.607678 0.8528 0.8530 0.8530 0.8534 0.8539
2807.805878 0.8540 0.8540 0.8540 0.8540 0.8536
2813.004078 0.8531 0.8530 0.8530 0.8530 0.8530
2818.202278 0.8522 0.8512 0.8498 0.8483 0.8468
2823.400478 0.8453 0.8446 0.8441 0.8424 0.8404
2828.598679 0.8388 0.8373 0.8354 0.8333 0.8322
2833.796879 0.8312 0.8273 0.8228 0.8195 0.8165
2838.995079 0.8110 0.8050 0.8028 0.8013 0.8002
2844.193279 0.7992 0.7990 0.7990 0.7998 0.8008
2849.391479 0.8026 0.8046 0.8062 0.8077 0.8092
2854.589679 0.8107 0.8131 0.8156 0.8172 0.8187
2859.787880 0.8211 0.8236 0.8244 0.8249 0.8250
2864.986080 0.8250 0.8246 0.8241 0.8240 0.8240
2870.184280 0.8240 0.8240 0.8232 0.8222 0.8220
2875.382480 0.8220 0.8216 0.8211 0.8210 0.8210
2880.580680 0.8202 0.8192 0.8186 0.8181 0.8172
2885.778881 0.8162 0.8152 0.8142 0.8128 0.8113
2890.977081 0.8098 0.8083 0.8068 0.8053 0.8038
2896.175281 0.8023 0.8004 0.7984 0.7960 0.7935
2901.373481 0.7893 0.7848 0.7828 0.7813 0.7786
2906.571681 0.7756 0.7718 0.7678 0.7622 0.7562
2911.769881 0.7502 0.7442 0.7361 0.7276 0.7191
2916.968082 0.7106 0.7009 0.6909 0.6797 0.6682
2922.166282 0.6526 0.6362 0.6237 0.6122 0.6088
2927.364482 0.6073 0.6082 0.6097 0.6128 0.6163
2932.562682 0.6246 0.6341 0.6432 0.6523 0.6552
2937.760882 0.6567 0.6615 0.6670 0.6777 0.6897
2942.959082 0.6944 0.6974 0.6964 0.6944 0.6928
2948.157283 0.6913 0.6866 0.6811 0.6764 0.6719
2953.355483 0.6666 0.6611 0.6520 0.6419 0.6307
2958.553683 0.6192 0.6061 0.5926 0.5743 0.5548
2963.751883 0.5366 0.5186 0.5142 0.5132 0.5138
2968.950083 0.5148 0.5217 0.5302 0.5383 0.5463
2974.148283 0.5547 0.5632 0.5714 0.5794 0.5874
2979.346484 0.5954 0.6038 0.6123 0.6208 0.6293
2984.544684 0.6366 0.6436 0.6442 0.6432 0.6418
2989.742884 0.6403 0.6384 0.6364 0.6317 0.6262
2994.941084 0.6195 0.6125 0.6027 0.5921 0.5788
3000.139284 0.5648 0.5480 0.5306 0.5179 0.5064
3005.337484 0.4945 0.4825 0.4575 0.4290 0.4159
3010.535685 0.4069 0.4050 0.4050 0.4073 0.4103
3015.733885 0.4153 0.4208 0.4326 0.4462 0.4848
3020.932085 0.5298 0.5457 0.5542 0.5687 0.5846
3026.130285 0.5955 0.6050 0.6164 0.6284 0.6377
3031.328485 0.6461 0.6539 0.6613 0.6684 0.6754
3036.526685 0.6817 0.6876 0.6933 0.6989 0.7036
3041.724886 0.7081 0.7122 0.7162 0.7194 0.7224
3046.923086 0.7246 0.7266 0.7290 0.7315 0.7339
3052.121286 0.7364 0.7386 0.7406 0.7422 0.7437
3057.319486 0.7448 0.7458 0.7464 0.7469 0.7490
3062.517686 0.7515 0.7524 0.7529 0.7530 0.7530
3067.715886 0.7542 0.7557 0.7572 0.7587 0.7609
3072.914087 0.7634 0.7648 0.7658 0.7664 0.7669
3078.112287 0.7670 0.7670 0.7682 0.7697 0.7708
3083.310487 0.7718 0.7736 0.7756 0.7768 0.7778
3088.508687 0.7792 0.7807 0.7833 0.7863 0.7882
3093.706887 0.7897 0.7912 0.7926 0.7941 0.7956
3098.905087 0.7979 0.8004 0.8022 0.8037 0.8052
3104.103288 0.8067 0.8082 0.8097 0.8112 0.8127
3109.301488 0.8149 0.8174 0.8192 0.8207 0.8221
3114.499688 0.8236 0.8251 0.8266 0.8281 0.8296
3119.697888 0.8300 0.8300 0.8304 0.8309 0.8318
3124.896088 0.8328 0.8330 0.8330 0.8334 0.8339
3130.094288 0.8352 0.8366 0.8381 0.8396 0.8400
3135.292489 0.8400 0.8415 0.8435 0.8440 0.8440
3140.490689 0.8444 0.8449 0.8461 0.8477 0.8488
3145.688889 0.8498 0.8500 0.8500 0.8500 0.8500
3150.887089 0.8511 0.8526 0.8530 0.8530 0.8530
3156.085289 0.8530 0.8534 0.8539 0.8540 0.8540
3161.283490 0.8548 0.8557 0.8560 0.8560 0.8564
3166.481690 0.8569 0.8578 0.8588 0.8594 0.8599
3171.679890 0.8608 0.8618 0.8624 0.8629 0.8630
3176.878090 0.8630 0.8638 0.8647 0.8650 0.8650
3182.076290 0.8650 0.8650 0.8654 0.8659 0.8660
3187.274490 0.8660 0.8660 0.8660 0.8668 0.8678
3192.472691 0.8680 0.8680 0.8688 0.8698 0.8700
3197.670891 0.8700 0.8711 0.8726 0.8730 0.8730
3202.869091 0.8734 0.8739 0.8740 0.8740 0.8740
3208.067291 0.8740 0.8740 0.8740 0.8740 0.8740
3213.265491 0.8740 0.8740 0.8740 0.8740 0.8740
3218.463691 0.8740 0.8747 0.8757 0.8760 0.8760
3223.661892 0.8764 0.8769 0.8770 0.8770 0.8778
3228.860092 0.8788 0.8782 0.8772 0.8770 0.8770
3234.058292 0.8777 0.8787 0.8790 0.8790 0.8790
3239.256492 0.8790 0.8794 0.8799 0.8800 0.8800
3244.454692 0.8796 0.8791 0.8790 0.8790 0.8790
3249.652892 0.8790 0.8790 0.8790 0.8790 0.8790
3254.851093 0.8790 0.8790 0.8790 0.8790 0.8790
3260.049293 0.8790 0.8790 0.8790 0.8794 0.8799
3265.247493 0.8807 0.8817 0.8820 0.8820 0.8824
3270.445693 0.8829 0.8830 0.8830 0.8830 0.8830
3275.643893 0.8830 0.8830 0.8837 0.8847 0.8850
3280.842093 0.8850 0.8854 0.8859 0.8867 0.8877
3286.040294 0.8880 0.8880 0.8884 0.8889 0.8897
3291.238494 0.8907 0.8921 0.8936 0.8951 0.8966
3296.436694 0.8970 0.8970 0.8970 0.8970 0.8977
3301.634894 0.8987 0.8990 0.8990 0.8990 0.8990
3306.833094 0.8990 0.8990 0.8990 0.8990 0.8994
3312.031294 0.8999 0.9000 0.9000 0.9000 0.9000
3317.229495 0.9000 0.9000 0.9000 0.9000 0.9000
3322.427695 0.9000 0.9000 0.9000 0.9000 0.9000
3327.625895 0.9000 0.9000 0.9000 0.9000 0.9000
3332.824095 0.9000 0.9007 0.9017 0.9013 0.9003
3338.022295 0.9000 0.9000 0.9000 0.9000 0.9000
3343.220495 0.9000 0.9000 0.9000 0.9000 0.9000
3348.418696 0.9000 0.9000 0.9000 0.9000 0.9000
3353.616896 0.9000 0.9000 0.9000 0.9000 0.9000
3358.815096 0.9000 0.9000 0.9000 0.9000 0.8996
3364.013296 0.8991 0.8990 0.8990 0.8990 0.8990
3369.211496 0.8990 0.8990 0.8990 0.8990 0.8983
3374.409696 0.8973 0.8970 0.8970 0.8970 0.8970
3379.607897 0.8970 0.8970 0.8959 0.8944 0.8933
3384.806097 0.8923 0.8920 0.8920 0.8909 0.8894
3390.004297 0.8890 0.8890 0.8879 0.8864 0.8849
3395.202497 0.8834 0.8819 0.8804 0.8789 0.8774
3400.400697 0.8749 0.8719 0.8682 0.8642 0.8619
3405.598897 0.8604 0.8558 0.8498 0.8417 0.8327
3410.797098 0.8258 0.8198 0.8088 0.7957 0.7831
3415.995298 0.7706 0.7595 0.7490 0.7382 0.7272
3421.193498 0.7229 0.7214 0.7217 0.7227 0.7279
3426.391698 0.7349 0.7412 0.7472 0.7560 0.7660
3431.589898 0.7742 0.7817 0.7910 0.8011 0.8090
3436.788099 0.8160 0.8212 0.8257 0.8295 0.8330
3441.986299 0.8351 0.8366 0.8388 0.8412 0.8427
3447.184499 0.8437 0.8440 0.8440 0.8440 0.8440
3452.382699 0.8440 0.8440 0.8440 0.8440 0.8440
3457.580899 0.8440 0.8444 0.8449 0.8457 0.8467
3462.779099 0.8491 0.8521 0.8540 0.8555 0.8570
3467.977300 0.8585 0.8611 0.8641 0.8660 0.8675
3473.175500 0.8687 0.8697 0.8703 0.8709 0.8710
3478.373700 0.8710 0.8710 0.8710 0.8710 0.8710
3483.571900 0.8707 0.8702 0.8700 0.8700 0.8693
3488.770100 0.8683 0.8680 0.8680 0.8673 0.8663
3493.968300 0.8657 0.8652 0.8650 0.8650 0.8653
3499.166501 0.8658 0.8660 0.8660 0.8674 0.8694
3504.364701 0.8700 0.8700 0.8700 0.8700 0.8700
3509.562901 0.8700 0.8700 0.8700 0.8700 0.8700
3514.761101 0.8700 0.8700 0.8693 0.8683 0.8680
3519.959301 0.8680 0.8680 0.8680 0.8680 0.8680
3525.157501 0.8680 0.8680 0.8680 0.8680 0.8680
3530.355702 0.8680 0.8680 0.8680 0.8680 0.8680
3535.553902 0.8680 0.8680 0.8680 0.8680 0.8680
3540.752102 0.8680 0.8680 0.8680 0.8680 0.8680
3545.950302 0.8680 0.8680 0.8680 0.8680 0.8687
3551.148502 0.8697 0.8700 0.8700 0.8703 0.8708
3556.346702 0.8717 0.8727 0.8730 0.8730 0.8733
3561.544903 0.8738 0.8740 0.8740 0.8740 0.8740
3566.743103 0.8740 0.8740 0.8747 0.8757 0.8760
3571.941303 0.8760 0.8763 0.8768 0.8770 0.8770
3577.139503 0.8777 0.8787 0.8810 0.8840 0.8864
3582.337703 0.8884 0.8917 0.8957 0.8987 0.9012
3587.535903 0.9020 0.9020 0.9020 0.9020 0.9010
3592.734104 0.8995 0.8983 0.8973 0.8970 0.8970
3597.932304 0.8967 0.8962 0.8960 0.8960 0.8953
3603.130504 0.8943 0.8933 0.8923 0.8920 0.8920
3608.328704 0.8920 0.8920 0.8920 0.8920 0.8920
3613.526904 0.8920 0.8920 0.8920 0.8920 0.8920
3618.725104 0.8920 0.8920 0.8920 0.8920 0.8920
3623.923305 0.8920 0.8920 0.8920 0.8917 0.8912
3629.121505 0.8910 0.8910 0.8910 0.8910 0.8903
3634.319705 0.8893 0.8890 0.8890 0.8890 0.8890
3639.517905 0.8890 0.8890 0.8890 0.8890 0.8890
3644.716105 0.8890 0.8890 0.8890 0.8890 0.8890
3649.914305 0.8897 0.8907 0.8910 0.8910 0.8910
3655.112506 0.8910 0.8913 0.8918 0.8920 0.8920
3660.310706 0.8920 0.8920 0.8920 0.8920 0.8920
3665.508906 0.8920 0.8920 0.8920 0.8920 0.8920
3670.707106 0.8917 0.8912 0.8903 0.8893 0.8890
3675.905306 0.8890 0.8887 0.8882 0.8880 0.8880
3681.103506 0.8874 0.8864 0.8841 0.8810 0.8777
3686.301707 0.8742 0.8707 0.8672 0.8640 0.8610
3691.499907 0.8597 0.8592 0.8593 0.8598 0.8606
3696.698107 0.8616 0.8630 0.8645 0.8676 0.8716
3701.896307 0.8740 0.8755 0.8763 0.8768 0.8780
3707.094507 0.8795 0.8810 0.8825 0.8837 0.8846
3712.292708 0.8860 0.8875 0.8883 0.8888 0.8900
3717.490908 0.8915 0.8920 0.8920 0.8926 0.8936
3722.689108 0.8946 0.8956 0.8960 0.8960 0.8963
3727.887308 0.8968 0.8976 0.8986 0.8993 0.8998
3733.085508 0.9000 0.9000 0.9000 0.9000 0.9000
3738.283708 0.9000 0.9000 0.9000 0.9000 0.9000
3743.481909 0.9000 0.9000 0.9000 0.9000 0.9000
3748.680109 0.9000 0.9000 0.9000 0.9000 0.9000
3753.878309 0.9006 0.9016 0.9014 0.9004 0.9000
3759.076509 0.9000 0.9000 0.9000 0.9000 0.9000
3764.274709 0.9000 0.9000 0.9000 0.9000 0.8997
3769.472909 0.8992 0.8990 0.8990 0.8984 0.8974
3774.671110 0.8967 0.8962 0.8960 0.8960 0.8954
3779.869310 0.8944 0.8940 0.8940 0.8940 0.8940
3785.067510 0.8949 0.8964 0.8970 0.8970 0.8976
3790.265710 0.8986 0.8990 0.8990 0.8990 0.8990
3795.463910 0.8990 0.8990 0.8984 0.8974 0.8970
3800.662110 0.8970 0.8967 0.8962 0.8960 0.8960
3805.860311 0.8963 0.8968 0.8970 0.8970 0.8970
3811.058511 0.8970 0.8967 0.8962 0.8960 0.8960
3816.256711 0.8960 0.8960 0.8960 0.8960 0.8960
3821.454911 0.8960 0.8960 0.8960 0.8963 0.8968
3826.653111 0.8976 0.8986 0.8990 0.8990 0.8990
3831.851311 0.8990 0.8990 0.8990 0.8993 0.8998
3837.049512 0.9000 0.9000 0.9000 0.9000 0.9006
3842.247712 0.9016 0.9023 0.9028 0.9036 0.9046
3847.445912 0.9053 0.9058 0.9066 0.9076 0.9080
3852.644112 0.9080 0.9083 0.9088 0.9096 0.9106
3857.842312 0.9110 0.9110 0.9110 0.9110 0.9110
3863.040512 0.9110 0.9110 0.9110 0.9110 0.9110
3868.238713 0.9110 0.9110 0.9110 0.9110 0.9110
3873.436913 0.9110 0.9104 0.9094 0.9090 0.9090
3878.635113 0.9090 0.9090 0.9087 0.9082 0.9071
3883.833313 0.9056 0.9050 0.9050 0.9044 0.9034
3889.031513 0.9027 0.9022 0.9020 0.9020 0.9014
3894.229713 0.9004 0.9000 0.9000 0.8997 0.8992
3899.427914 0.8990 0.8990 0.8990 0.8990 0.8990
3904.626114 0.8990 0.8990 0.8990 0.8990 0.8990
3909.824314 0.8990 0.8990 0.8990 0.8990 0.8990
3915.022514 0.8990 0.8993 0.8998 0.9000 0.9000
3920.220714 0.9000 0.9000 0.9000 0.9000 0.9006
3925.418914 0.9016 0.9020 0.9020 0.9020 0.9020
3930.617115 0.9020 0.9020 0.9023 0.9028 0.9036
3935.815315 0.9046 0.9053 0.9058 0.9066 0.9076
3941.013515 0.9083 0.9088 0.9090 0.9090 0.9090
3946.211715 0.9090 0.9087 0.9082 0.9080 0.9080
3951.409915 0.9080 0.9080 0.9080 0.9080 0.9080
3956.608115 0.9080 0.9080 0.9080 0.9074 0.9064
3961.806316 0.9060 0.9060 0.9060 0.9060 0.9060
3967.004516 0.9060 0.9057 0.9052 0.9044 0.9034
3972.202716 0.9030 0.9030 0.9027 0.9022 0.9014
3977.400916 0.9004 0.9000 0.9000 0.9000 0.9000
3982.599116 0.8997 0.8992 0.8975 0.8950 0.8922
3987.797317 0.8892 0.8880 0.8880 0.8883 0.8888
3992.995517 0.8890 0.8890 0.8887 0.8882 0.8880
3998.193717 0.8880 0.8880 0.8880
##END=
